 Entering Gaussian System, Link 0=g16
 Initial command:
 /app/gaussian/g16/l1.exe "/work/scr/Gau-256555.inp" -scrdir="/work/scr/"
 Entering Link 1 = /app/gaussian/g16/l1.exe PID=    256556.
  
 Copyright (c) 1988-2019, Gaussian, Inc.  All Rights Reserved.
  
 This is part of the Gaussian(R) 16 program.  It is based on
 the Gaussian(R) 09 system (copyright 2009, Gaussian, Inc.),
 the Gaussian(R) 03 system (copyright 2003, Gaussian, Inc.),
 the Gaussian(R) 98 system (copyright 1998, Gaussian, Inc.),
 the Gaussian(R) 94 system (copyright 1995, Gaussian, Inc.),
 the Gaussian 92(TM) system (copyright 1992, Gaussian, Inc.),
 the Gaussian 90(TM) system (copyright 1990, Gaussian, Inc.),
 the Gaussian 88(TM) system (copyright 1988, Gaussian, Inc.),
 the Gaussian 86(TM) system (copyright 1986, Carnegie Mellon
 University), and the Gaussian 82(TM) system (copyright 1983,
 Carnegie Mellon University). Gaussian is a federally registered
 trademark of Gaussian, Inc.
  
 This software contains proprietary and confidential information,
 including trade secrets, belonging to Gaussian, Inc.
  
 This software is provided under written license and may be
 used, copied, transmitted, or stored only in accord with that
 written license.
  
 The following legend is applicable only to US Government
 contracts under FAR:
  
                    RESTRICTED RIGHTS LEGEND
  
 Use, reproduction and disclosure by the US Government is
 subject to restrictions as set forth in subparagraphs (a)
 and (c) of the Commercial Computer Software - Restricted
 Rights clause in FAR 52.227-19.
  
 Gaussian, Inc.
 340 Quinnipiac St., Bldg. 40, Wallingford CT 06492
  
  
 ---------------------------------------------------------------
 Warning -- This program may not be used in any manner that
 competes with the business of Gaussian, Inc. or will provide
 assistance to any competitor of Gaussian, Inc.  The licensee
 of this program is prohibited from giving any competitor of
 Gaussian, Inc. access to this program.  By using this program,
 the user acknowledges that Gaussian, Inc. is engaged in the
 business of creating and licensing software in the field of
 computational chemistry and represents and warrants to the
 licensee that it is not a competitor of Gaussian, Inc. and that
 it will not use this program in any manner prohibited above.
 ---------------------------------------------------------------
  

 Cite this work as:
 Gaussian 16, Revision C.01,
 M. J. Frisch, G. W. Trucks, H. B. Schlegel, G. E. Scuseria, 
 M. A. Robb, J. R. Cheeseman, G. Scalmani, V. Barone, 
 G. A. Petersson, H. Nakatsuji, X. Li, M. Caricato, A. V. Marenich, 
 J. Bloino, B. G. Janesko, R. Gomperts, B. Mennucci, H. P. Hratchian, 
 J. V. Ortiz, A. F. Izmaylov, J. L. Sonnenberg, D. Williams-Young, 
 F. Ding, F. Lipparini, F. Egidi, J. Goings, B. Peng, A. Petrone, 
 T. Henderson, D. Ranasinghe, V. G. Zakrzewski, J. Gao, N. Rega, 
 G. Zheng, W. Liang, M. Hada, M. Ehara, K. Toyota, R. Fukuda, 
 J. Hasegawa, M. Ishida, T. Nakajima, Y. Honda, O. Kitao, H. Nakai, 
 T. Vreven, K. Throssell, J. A. Montgomery, Jr., J. E. Peralta, 
 F. Ogliaro, M. J. Bearpark, J. J. Heyd, E. N. Brothers, K. N. Kudin, 
 V. N. Staroverov, T. A. Keith, R. Kobayashi, J. Normand, 
 K. Raghavachari, A. P. Rendell, J. C. Burant, S. S. Iyengar, 
 J. Tomasi, M. Cossi, J. M. Millam, M. Klene, C. Adamo, R. Cammi, 
 J. W. Ochterski, R. L. Martin, K. Morokuma, O. Farkas, 
 J. B. Foresman, and D. J. Fox, Gaussian, Inc., Wallingford CT, 2019.
 
 ******************************************
 Gaussian 16:  ES64L-G16RevC.01  3-Jul-2019
                28-Jul-2025 
 ******************************************
 %mem=8GB
 %nprocshared=8
 Will use up to    8 processors via shared memory.
 -------------------
 #p opt B3LYP/6-31+G
 -------------------
 1/18=20,19=15,26=3,38=1/1,3;
 2/9=110,12=2,17=6,18=5,40=1/2;
 3/5=1,6=6,7=10,11=2,25=1,30=1,71=1,74=-5/1,2,3;
 4//1;
 5/5=2,38=5/2;
 6/7=2,8=2,9=2,10=2,28=1/1;
 7//1,2,3,16;
 1/18=20,19=15,26=3/3(2);
 2/9=110/2;
 99//99;
 2/9=110/2;
 3/5=1,6=6,7=10,11=2,25=1,30=1,71=1,74=-5/1,2,3;
 4/5=5,16=3,69=1/1;
 5/5=2,38=5/2;
 7//1,2,3,16;
 1/18=20,19=15,26=3/3(-5);
 2/9=110/2;
 6/7=2,8=2,9=2,10=2,19=2,28=1/1;
 99/9=1/99;
 Leave Link    1 at Mon Jul 28 18:37:06 2025, MaxMem=  1073741824 cpu:               0.5 elap:               0.1
 (Enter /app/gaussian/g16/l101.exe)
 -------------------------------------
 7-dehydrocholesterol Opt B3LYP/6-31+G
 -------------------------------------
 Symbolic Z-matrix:
 Charge =  0 Multiplicity = 1
 C                     0.64407  -0.39     -0.56132 
 C                     0.18672  -0.46158   0.91284 
 C                    -0.56798   0.82137   1.33639 
 C                    -1.82645   1.0719    0.54685 
 C                    -2.78627  -0.12528   0.44395 
 C                    -3.93569   0.0834   -0.63859 
 C                    -3.46072  -0.29644  -2.06322 
 C                    -4.36215   1.55581  -0.70061 
 C                    -3.50803   2.5467   -0.39953 
 C                    -2.17681   2.28383   0.08354 
 C                    -5.79873   1.81718  -1.06591 
 C                    -6.75563   1.16412  -0.05513 
 O                    -7.95216   0.80048  -0.74915 
 C                    -6.16784  -0.08237   0.62591 
 C                    -5.17271  -0.80171  -0.29074 
 C                    -2.04411  -1.48746   0.27274 
 C                    -0.77342  -1.6443    1.12224 
 C                     0.54837   1.86768   1.42922 
 C                     1.76489   1.08543   1.96168 
 C                     1.35581  -0.40559   1.93807 
 C                     2.47983  -1.47338   1.94115 
 C                     3.33617  -1.72427   0.68256 
 C                     4.24149  -0.58733   0.2034 
 C                     5.14014  -1.05008  -0.95146 
 C                     6.14641   0.0211   -1.41242 
 C                     7.09276  -0.57329  -2.45853 
 C                     5.45958   1.26196  -1.98511 
 C                     3.39281  -1.26743   3.16365 
 H                    -0.14883  -0.03264  -1.22613 
 H                     1.48797   0.28817  -0.70556 
 H                     0.92918  -1.3762   -0.9367 
 H                    -0.92821   0.68322   2.37058 
 H                    -3.26915  -0.17151   1.43244 
 H                    -4.18475   0.01334  -2.82686 
 H                    -3.34502  -1.37979  -2.17596 
 H                    -2.50547   0.179    -2.3125 
 H                    -3.81442   3.58841  -0.448 
 H                    -1.52633   3.14664   0.19243 
 H                    -6.01555   2.89161  -1.1169 
 H                    -5.99076   1.43851  -2.07788 
 H                    -7.03979   1.89325   0.71303 
 H                    -8.58122   0.46343  -0.08823 
 H                    -6.96529  -0.77823   0.91163 
 H                    -5.65345   0.21475   1.54785 
 H                    -4.86182  -1.73968   0.18125 
 H                    -5.70359  -1.09288  -1.20757 
 H                    -1.75293  -1.64559  -0.7694 
 H                    -2.72606  -2.30873   0.5214 
 H                    -1.06244  -1.72254   2.17817 
 H                    -0.27748  -2.58813   0.86573 
 H                     0.28125   2.69149   2.09959 
 H                     0.78245   2.30019   0.44954 
 H                     2.64139   1.30966   1.3539 
 H                     1.99805   1.39809   2.98614 
 H                     0.87379  -0.56255   2.91963 
 H                     1.96553  -2.42987   2.11825 
 H                     2.70258  -2.06058  -0.14082 
 H                     3.97802  -2.59069   0.89854 
 H                     4.8707   -0.2271    1.02361 
 H                     3.63166   0.24732  -0.14249 
 H                     5.69634  -1.94016  -0.6299 
 H                     4.51367  -1.35955  -1.79797 
 H                     6.75078   0.33034  -0.5502 
 H                     6.54591  -0.89834  -3.35038 
 H                     7.6268   -1.43934  -2.05325 
 H                     7.84157   0.16301  -2.76957 
 H                     4.78326   0.99852  -2.80527 
 H                     6.19923   1.9713   -2.37212 
 H                     4.8803    1.78676  -1.21953 
 H                     2.80762  -1.27217   4.08979 
 H                     4.13035  -2.0736    3.24071 
 H                     3.93378  -0.31761   3.11625 
 
 ITRead=  0  0  0  0  0  0  0  0  0  0  0  0  0  0  0  0  0  0  0  0
 ITRead=  0  0  0  0  0  0  0  0  0  0  0  0  0  0  0  0  0  0  0  0
 ITRead=  0  0  0  0  0  0  0  0  0  0  0  0  0  0  0  0  0  0  0  0
 ITRead=  0  0  0  0  0  0  0  0  0  0  0  0
 MicOpt= -1 -1 -1 -1 -1 -1 -1 -1 -1 -1 -1 -1 -1 -1 -1 -1 -1 -1 -1 -1
 MicOpt= -1 -1 -1 -1 -1 -1 -1 -1 -1 -1 -1 -1 -1 -1 -1 -1 -1 -1 -1 -1
 MicOpt= -1 -1 -1 -1 -1 -1 -1 -1 -1 -1 -1 -1 -1 -1 -1 -1 -1 -1 -1 -1
 MicOpt= -1 -1 -1 -1 -1 -1 -1 -1 -1 -1 -1 -1
 NAtoms=     72 NQM=       72 NQMF=       0 NMMI=      0 NMMIF=      0
                NMic=       0 NMicF=      0.
                    Isotopes and Nuclear Properties:
 (Nuclear quadrupole moments (NQMom) in fm**2, nuclear magnetic moments (NMagM)
  in nuclear magnetons)

  Atom         1           2           3           4           5           6           7           8           9          10
 IAtWgt=          12          12          12          12          12          12          12          12          12          12
 AtmWgt=  12.0000000  12.0000000  12.0000000  12.0000000  12.0000000  12.0000000  12.0000000  12.0000000  12.0000000  12.0000000
 NucSpn=           0           0           0           0           0           0           0           0           0           0
 AtZEff=  -0.0000000  -0.0000000  -0.0000000  -0.0000000  -0.0000000  -0.0000000  -0.0000000  -0.0000000  -0.0000000  -0.0000000
 NQMom=    0.0000000   0.0000000   0.0000000   0.0000000   0.0000000   0.0000000   0.0000000   0.0000000   0.0000000   0.0000000
 NMagM=    0.0000000   0.0000000   0.0000000   0.0000000   0.0000000   0.0000000   0.0000000   0.0000000   0.0000000   0.0000000
 AtZNuc=   6.0000000   6.0000000   6.0000000   6.0000000   6.0000000   6.0000000   6.0000000   6.0000000   6.0000000   6.0000000

  Atom        11          12          13          14          15          16          17          18          19          20
 IAtWgt=          12          12          16          12          12          12          12          12          12          12
 AtmWgt=  12.0000000  12.0000000  15.9949146  12.0000000  12.0000000  12.0000000  12.0000000  12.0000000  12.0000000  12.0000000
 NucSpn=           0           0           0           0           0           0           0           0           0           0
 AtZEff=  -0.0000000  -0.0000000  -0.0000000  -0.0000000  -0.0000000  -0.0000000  -0.0000000  -0.0000000  -0.0000000  -0.0000000
 NQMom=    0.0000000   0.0000000   0.0000000   0.0000000   0.0000000   0.0000000   0.0000000   0.0000000   0.0000000   0.0000000
 NMagM=    0.0000000   0.0000000   0.0000000   0.0000000   0.0000000   0.0000000   0.0000000   0.0000000   0.0000000   0.0000000
 AtZNuc=   6.0000000   6.0000000   8.0000000   6.0000000   6.0000000   6.0000000   6.0000000   6.0000000   6.0000000   6.0000000

  Atom        21          22          23          24          25          26          27          28          29          30
 IAtWgt=          12          12          12          12          12          12          12          12           1           1
 AtmWgt=  12.0000000  12.0000000  12.0000000  12.0000000  12.0000000  12.0000000  12.0000000  12.0000000   1.0078250   1.0078250
 NucSpn=           0           0           0           0           0           0           0           0           1           1
 AtZEff=  -0.0000000  -0.0000000  -0.0000000  -0.0000000  -0.0000000  -0.0000000  -0.0000000  -0.0000000  -0.0000000  -0.0000000
 NQMom=    0.0000000   0.0000000   0.0000000   0.0000000   0.0000000   0.0000000   0.0000000   0.0000000   0.0000000   0.0000000
 NMagM=    0.0000000   0.0000000   0.0000000   0.0000000   0.0000000   0.0000000   0.0000000   0.0000000   2.7928460   2.7928460
 AtZNuc=   6.0000000   6.0000000   6.0000000   6.0000000   6.0000000   6.0000000   6.0000000   6.0000000   1.0000000   1.0000000

  Atom        31          32          33          34          35          36          37          38          39          40
 IAtWgt=           1           1           1           1           1           1           1           1           1           1
 AtmWgt=   1.0078250   1.0078250   1.0078250   1.0078250   1.0078250   1.0078250   1.0078250   1.0078250   1.0078250   1.0078250
 NucSpn=           1           1           1           1           1           1           1           1           1           1
 AtZEff=  -0.0000000  -0.0000000  -0.0000000  -0.0000000  -0.0000000  -0.0000000  -0.0000000  -0.0000000  -0.0000000  -0.0000000
 NQMom=    0.0000000   0.0000000   0.0000000   0.0000000   0.0000000   0.0000000   0.0000000   0.0000000   0.0000000   0.0000000
 NMagM=    2.7928460   2.7928460   2.7928460   2.7928460   2.7928460   2.7928460   2.7928460   2.7928460   2.7928460   2.7928460
 AtZNuc=   1.0000000   1.0000000   1.0000000   1.0000000   1.0000000   1.0000000   1.0000000   1.0000000   1.0000000   1.0000000

  Atom        41          42          43          44          45          46          47          48          49          50
 IAtWgt=           1           1           1           1           1           1           1           1           1           1
 AtmWgt=   1.0078250   1.0078250   1.0078250   1.0078250   1.0078250   1.0078250   1.0078250   1.0078250   1.0078250   1.0078250
 NucSpn=           1           1           1           1           1           1           1           1           1           1
 AtZEff=  -0.0000000  -0.0000000  -0.0000000  -0.0000000  -0.0000000  -0.0000000  -0.0000000  -0.0000000  -0.0000000  -0.0000000
 NQMom=    0.0000000   0.0000000   0.0000000   0.0000000   0.0000000   0.0000000   0.0000000   0.0000000   0.0000000   0.0000000
 NMagM=    2.7928460   2.7928460   2.7928460   2.7928460   2.7928460   2.7928460   2.7928460   2.7928460   2.7928460   2.7928460
 AtZNuc=   1.0000000   1.0000000   1.0000000   1.0000000   1.0000000   1.0000000   1.0000000   1.0000000   1.0000000   1.0000000

  Atom        51          52          53          54          55          56          57          58          59          60
 IAtWgt=           1           1           1           1           1           1           1           1           1           1
 AtmWgt=   1.0078250   1.0078250   1.0078250   1.0078250   1.0078250   1.0078250   1.0078250   1.0078250   1.0078250   1.0078250
 NucSpn=           1           1           1           1           1           1           1           1           1           1
 AtZEff=  -0.0000000  -0.0000000  -0.0000000  -0.0000000  -0.0000000  -0.0000000  -0.0000000  -0.0000000  -0.0000000  -0.0000000
 NQMom=    0.0000000   0.0000000   0.0000000   0.0000000   0.0000000   0.0000000   0.0000000   0.0000000   0.0000000   0.0000000
 NMagM=    2.7928460   2.7928460   2.7928460   2.7928460   2.7928460   2.7928460   2.7928460   2.7928460   2.7928460   2.7928460
 AtZNuc=   1.0000000   1.0000000   1.0000000   1.0000000   1.0000000   1.0000000   1.0000000   1.0000000   1.0000000   1.0000000

  Atom        61          62          63          64          65          66          67          68          69          70
 IAtWgt=           1           1           1           1           1           1           1           1           1           1
 AtmWgt=   1.0078250   1.0078250   1.0078250   1.0078250   1.0078250   1.0078250   1.0078250   1.0078250   1.0078250   1.0078250
 NucSpn=           1           1           1           1           1           1           1           1           1           1
 AtZEff=  -0.0000000  -0.0000000  -0.0000000  -0.0000000  -0.0000000  -0.0000000  -0.0000000  -0.0000000  -0.0000000  -0.0000000
 NQMom=    0.0000000   0.0000000   0.0000000   0.0000000   0.0000000   0.0000000   0.0000000   0.0000000   0.0000000   0.0000000
 NMagM=    2.7928460   2.7928460   2.7928460   2.7928460   2.7928460   2.7928460   2.7928460   2.7928460   2.7928460   2.7928460
 AtZNuc=   1.0000000   1.0000000   1.0000000   1.0000000   1.0000000   1.0000000   1.0000000   1.0000000   1.0000000   1.0000000

  Atom        71          72
 IAtWgt=           1           1
 AtmWgt=   1.0078250   1.0078250
 NucSpn=           1           1
 AtZEff=  -0.0000000  -0.0000000
 NQMom=    0.0000000   0.0000000
 NMagM=    2.7928460   2.7928460
 AtZNuc=   1.0000000   1.0000000
 Leave Link  101 at Mon Jul 28 18:37:06 2025, MaxMem=  1073741824 cpu:               1.9 elap:               0.3
 (Enter /app/gaussian/g16/l103.exe)

 GradGradGradGradGradGradGradGradGradGradGradGradGradGradGradGradGradGrad
 Berny optimization.
 Initialization pass.
                           ----------------------------
                           !    Initial Parameters    !
                           ! (Angstroms and Degrees)  !
 --------------------------                            --------------------------
 ! Name  Definition              Value          Derivative Info.                !
 --------------------------------------------------------------------------------
 ! R1    R(1,2)                  1.5451         estimate D2E/DX2                !
 ! R2    R(1,29)                 1.0947         estimate D2E/DX2                !
 ! R3    R(1,30)                 1.0922         estimate D2E/DX2                !
 ! R4    R(1,31)                 1.0931         estimate D2E/DX2                !
 ! R5    R(2,3)                  1.5476         estimate D2E/DX2                !
 ! R6    R(2,17)                 1.5377         estimate D2E/DX2                !
 ! R7    R(2,20)                 1.556          estimate D2E/DX2                !
 ! R8    R(3,4)                  1.5066         estimate D2E/DX2                !
 ! R9    R(3,18)                 1.5328         estimate D2E/DX2                !
 ! R10   R(3,32)                 1.1038         estimate D2E/DX2                !
 ! R11   R(4,5)                  1.5379         estimate D2E/DX2                !
 ! R12   R(4,10)                 1.3439         estimate D2E/DX2                !
 ! R13   R(5,6)                  1.5927         estimate D2E/DX2                !
 ! R14   R(5,16)                 1.5607         estimate D2E/DX2                !
 ! R15   R(5,33)                 1.1011         estimate D2E/DX2                !
 ! R16   R(6,7)                  1.549          estimate D2E/DX2                !
 ! R17   R(6,8)                  1.5342         estimate D2E/DX2                !
 ! R18   R(6,15)                 1.5603         estimate D2E/DX2                !
 ! R19   R(7,34)                 1.097          estimate D2E/DX2                !
 ! R20   R(7,35)                 1.0953         estimate D2E/DX2                !
 ! R21   R(7,36)                 1.0958         estimate D2E/DX2                !
 ! R22   R(8,9)                  1.3424         estimate D2E/DX2                !
 ! R23   R(8,11)                 1.5052         estimate D2E/DX2                !
 ! R24   R(9,10)                 1.4403         estimate D2E/DX2                !
 ! R25   R(9,37)                 1.0869         estimate D2E/DX2                !
 ! R26   R(10,38)                1.086          estimate D2E/DX2                !
 ! R27   R(11,12)                1.5375         estimate D2E/DX2                !
 ! R28   R(11,39)                1.0973         estimate D2E/DX2                !
 ! R29   R(11,40)                1.0974         estimate D2E/DX2                !
 ! R30   R(12,13)                1.4302         estimate D2E/DX2                !
 ! R31   R(12,14)                1.5372         estimate D2E/DX2                !
 ! R32   R(12,41)                1.0966         estimate D2E/DX2                !
 ! R33   R(13,42)                0.9727         estimate D2E/DX2                !
 ! R34   R(14,15)                1.5323         estimate D2E/DX2                !
 ! R35   R(14,43)                1.0963         estimate D2E/DX2                !
 ! R36   R(14,44)                1.0967         estimate D2E/DX2                !
 ! R37   R(15,45)                1.0951         estimate D2E/DX2                !
 ! R38   R(15,46)                1.0987         estimate D2E/DX2                !
 ! R39   R(16,17)                1.5365         estimate D2E/DX2                !
 ! R40   R(16,47)                1.0935         estimate D2E/DX2                !
 ! R41   R(16,48)                1.0961         estimate D2E/DX2                !
 ! R42   R(17,49)                1.0976         estimate D2E/DX2                !
 ! R43   R(17,50)                1.0966         estimate D2E/DX2                !
 ! R44   R(18,19)                1.5412         estimate D2E/DX2                !
 ! R45   R(18,51)                1.0952         estimate D2E/DX2                !
 ! R46   R(18,52)                1.0962         estimate D2E/DX2                !
 ! R47   R(19,20)                1.5463         estimate D2E/DX2                !
 ! R48   R(19,53)                1.0899         estimate D2E/DX2                !
 ! R49   R(19,54)                1.0962         estimate D2E/DX2                !
 ! R50   R(20,21)                1.5504         estimate D2E/DX2                !
 ! R51   R(20,55)                1.1047         estimate D2E/DX2                !
 ! R52   R(21,22)                1.5428         estimate D2E/DX2                !
 ! R53   R(21,28)                1.5396         estimate D2E/DX2                !
 ! R54   R(21,56)                1.1003         estimate D2E/DX2                !
 ! R55   R(22,23)                1.5303         estimate D2E/DX2                !
 ! R56   R(22,57)                1.092          estimate D2E/DX2                !
 ! R57   R(22,58)                1.0997         estimate D2E/DX2                !
 ! R58   R(23,24)                1.5347         estimate D2E/DX2                !
 ! R59   R(23,59)                1.0947         estimate D2E/DX2                !
 ! R60   R(23,60)                1.09           estimate D2E/DX2                !
 ! R61   R(24,25)                1.5403         estimate D2E/DX2                !
 ! R62   R(24,61)                1.0977         estimate D2E/DX2                !
 ! R63   R(24,62)                1.0976         estimate D2E/DX2                !
 ! R64   R(25,26)                1.5308         estimate D2E/DX2                !
 ! R65   R(25,27)                1.5295         estimate D2E/DX2                !
 ! R66   R(25,63)                1.0974         estimate D2E/DX2                !
 ! R67   R(26,64)                1.0955         estimate D2E/DX2                !
 ! R68   R(26,65)                1.0952         estimate D2E/DX2                !
 ! R69   R(26,66)                1.0953         estimate D2E/DX2                !
 ! R70   R(27,67)                1.0952         estimate D2E/DX2                !
 ! R71   R(27,68)                1.0955         estimate D2E/DX2                !
 ! R72   R(27,69)                1.0941         estimate D2E/DX2                !
 ! R73   R(28,70)                1.0955         estimate D2E/DX2                !
 ! R74   R(28,71)                1.0954         estimate D2E/DX2                !
 ! R75   R(28,72)                1.0941         estimate D2E/DX2                !
 ! A1    A(2,1,29)             112.342          estimate D2E/DX2                !
 ! A2    A(2,1,30)             112.5486         estimate D2E/DX2                !
 ! A3    A(2,1,31)             111.2874         estimate D2E/DX2                !
 ! A4    A(29,1,30)            106.0662         estimate D2E/DX2                !
 ! A5    A(29,1,31)            105.9559         estimate D2E/DX2                !
 ! A6    A(30,1,31)            108.2604         estimate D2E/DX2                !
 ! A7    A(1,2,3)              111.5342         estimate D2E/DX2                !
 ! A8    A(1,2,17)             110.5102         estimate D2E/DX2                !
 ! A9    A(1,2,20)             113.8643         estimate D2E/DX2                !
 ! A10   A(3,2,17)             107.2092         estimate D2E/DX2                !
 ! A11   A(3,2,20)              98.9892         estimate D2E/DX2                !
 ! A12   A(17,2,20)            114.0232         estimate D2E/DX2                !
 ! A13   A(2,3,4)              113.6897         estimate D2E/DX2                !
 ! A14   A(2,3,18)             103.1374         estimate D2E/DX2                !
 ! A15   A(2,3,32)             108.1688         estimate D2E/DX2                !
 ! A16   A(4,3,18)             121.7735         estimate D2E/DX2                !
 ! A17   A(4,3,32)             103.84           estimate D2E/DX2                !
 ! A18   A(18,3,32)            105.4483         estimate D2E/DX2                !
 ! A19   A(3,4,5)              115.2733         estimate D2E/DX2                !
 ! A20   A(3,4,10)             123.2561         estimate D2E/DX2                !
 ! A21   A(5,4,10)             121.0787         estimate D2E/DX2                !
 ! A22   A(4,5,6)              113.1974         estimate D2E/DX2                !
 ! A23   A(4,5,16)             112.9548         estimate D2E/DX2                !
 ! A24   A(4,5,33)             104.2601         estimate D2E/DX2                !
 ! A25   A(6,5,16)             112.5192         estimate D2E/DX2                !
 ! A26   A(6,5,33)             107.409          estimate D2E/DX2                !
 ! A27   A(16,5,33)            105.6872         estimate D2E/DX2                !
 ! A28   A(5,6,7)              111.8205         estimate D2E/DX2                !
 ! A29   A(5,6,8)              110.7223         estimate D2E/DX2                !
 ! A30   A(5,6,15)             110.261          estimate D2E/DX2                !
 ! A31   A(7,6,8)              106.4631         estimate D2E/DX2                !
 ! A32   A(7,6,15)             108.0006         estimate D2E/DX2                !
 ! A33   A(8,6,15)             109.4541         estimate D2E/DX2                !
 ! A34   A(6,7,34)             111.6299         estimate D2E/DX2                !
 ! A35   A(6,7,35)             111.6901         estimate D2E/DX2                !
 ! A36   A(6,7,36)             111.7247         estimate D2E/DX2                !
 ! A37   A(34,7,35)            106.1031         estimate D2E/DX2                !
 ! A38   A(34,7,36)            107.1274         estimate D2E/DX2                !
 ! A39   A(35,7,36)            108.2789         estimate D2E/DX2                !
 ! A40   A(6,8,9)              121.5            estimate D2E/DX2                !
 ! A41   A(6,8,11)             116.2173         estimate D2E/DX2                !
 ! A42   A(9,8,11)             122.244          estimate D2E/DX2                !
 ! A43   A(8,9,10)             121.9085         estimate D2E/DX2                !
 ! A44   A(8,9,37)             121.2043         estimate D2E/DX2                !
 ! A45   A(10,9,37)            116.7694         estimate D2E/DX2                !
 ! A46   A(4,10,9)             121.4092         estimate D2E/DX2                !
 ! A47   A(4,10,38)            121.7162         estimate D2E/DX2                !
 ! A48   A(9,10,38)            116.2456         estimate D2E/DX2                !
 ! A49   A(8,11,12)            111.1436         estimate D2E/DX2                !
 ! A50   A(8,11,39)            111.71           estimate D2E/DX2                !
 ! A51   A(8,11,40)            109.3229         estimate D2E/DX2                !
 ! A52   A(12,11,39)           108.8738         estimate D2E/DX2                !
 ! A53   A(12,11,40)           110.5342         estimate D2E/DX2                !
 ! A54   A(39,11,40)           105.096          estimate D2E/DX2                !
 ! A55   A(11,12,13)           108.0391         estimate D2E/DX2                !
 ! A56   A(11,12,14)           113.4351         estimate D2E/DX2                !
 ! A57   A(11,12,41)           109.8399         estimate D2E/DX2                !
 ! A58   A(13,12,14)           109.1902         estimate D2E/DX2                !
 ! A59   A(13,12,41)           106.9886         estimate D2E/DX2                !
 ! A60   A(14,12,41)           109.1416         estimate D2E/DX2                !
 ! A61   A(12,13,42)           107.424          estimate D2E/DX2                !
 ! A62   A(12,14,15)           111.3433         estimate D2E/DX2                !
 ! A63   A(12,14,43)           110.6115         estimate D2E/DX2                !
 ! A64   A(12,14,44)           109.3956         estimate D2E/DX2                !
 ! A65   A(15,14,43)           109.2889         estimate D2E/DX2                !
 ! A66   A(15,14,44)           108.9929         estimate D2E/DX2                !
 ! A67   A(43,14,44)           107.1008         estimate D2E/DX2                !
 ! A68   A(6,15,14)            112.4532         estimate D2E/DX2                !
 ! A69   A(6,15,45)            110.9092         estimate D2E/DX2                !
 ! A70   A(6,15,46)            110.3259         estimate D2E/DX2                !
 ! A71   A(14,15,45)           109.1859         estimate D2E/DX2                !
 ! A72   A(14,15,46)           108.0472         estimate D2E/DX2                !
 ! A73   A(45,15,46)           105.6543         estimate D2E/DX2                !
 ! A74   A(5,16,17)            114.9426         estimate D2E/DX2                !
 ! A75   A(5,16,47)            110.9395         estimate D2E/DX2                !
 ! A76   A(5,16,48)            109.4651         estimate D2E/DX2                !
 ! A77   A(17,16,47)           106.9729         estimate D2E/DX2                !
 ! A78   A(17,16,48)           108.2176         estimate D2E/DX2                !
 ! A79   A(47,16,48)           105.8738         estimate D2E/DX2                !
 ! A80   A(2,17,16)            111.2586         estimate D2E/DX2                !
 ! A81   A(2,17,49)            110.5032         estimate D2E/DX2                !
 ! A82   A(2,17,50)            110.3495         estimate D2E/DX2                !
 ! A83   A(16,17,49)           108.7482         estimate D2E/DX2                !
 ! A84   A(16,17,50)           109.4231         estimate D2E/DX2                !
 ! A85   A(49,17,50)           106.4252         estimate D2E/DX2                !
 ! A86   A(3,18,19)            104.4377         estimate D2E/DX2                !
 ! A87   A(3,18,51)            111.894          estimate D2E/DX2                !
 ! A88   A(3,18,52)            111.7598         estimate D2E/DX2                !
 ! A89   A(19,18,51)           111.2745         estimate D2E/DX2                !
 ! A90   A(19,18,52)           109.9057         estimate D2E/DX2                !
 ! A91   A(51,18,52)           107.5982         estimate D2E/DX2                !
 ! A92   A(18,19,20)           105.9807         estimate D2E/DX2                !
 ! A93   A(18,19,53)           109.7367         estimate D2E/DX2                !
 ! A94   A(18,19,54)           110.243          estimate D2E/DX2                !
 ! A95   A(20,19,53)           113.7419         estimate D2E/DX2                !
 ! A96   A(20,19,54)           110.2162         estimate D2E/DX2                !
 ! A97   A(53,19,54)           106.9421         estimate D2E/DX2                !
 ! A98   A(2,20,19)            104.0953         estimate D2E/DX2                !
 ! A99   A(2,20,21)            121.4172         estimate D2E/DX2                !
 ! A100  A(2,20,55)            104.625          estimate D2E/DX2                !
 ! A101  A(19,20,21)           118.1824         estimate D2E/DX2                !
 ! A102  A(19,20,55)           103.82           estimate D2E/DX2                !
 ! A103  A(21,20,55)           102.5161         estimate D2E/DX2                !
 ! A104  A(20,21,22)           120.8499         estimate D2E/DX2                !
 ! A105  A(20,21,28)           109.8382         estimate D2E/DX2                !
 ! A106  A(20,21,56)           105.0785         estimate D2E/DX2                !
 ! A107  A(22,21,28)           109.8989         estimate D2E/DX2                !
 ! A108  A(22,21,56)           104.4403         estimate D2E/DX2                !
 ! A109  A(28,21,56)           105.4056         estimate D2E/DX2                !
 ! A110  A(21,22,23)           117.579          estimate D2E/DX2                !
 ! A111  A(21,22,57)           110.068          estimate D2E/DX2                !
 ! A112  A(21,22,58)           106.9695         estimate D2E/DX2                !
 ! A113  A(23,22,57)           109.6316         estimate D2E/DX2                !
 ! A114  A(23,22,58)           107.5509         estimate D2E/DX2                !
 ! A115  A(57,22,58)           104.1283         estimate D2E/DX2                !
 ! A116  A(22,23,24)           110.9775         estimate D2E/DX2                !
 ! A117  A(22,23,59)           110.4816         estimate D2E/DX2                !
 ! A118  A(22,23,60)           109.7103         estimate D2E/DX2                !
 ! A119  A(24,23,59)           109.054          estimate D2E/DX2                !
 ! A120  A(24,23,60)           108.6439         estimate D2E/DX2                !
 ! A121  A(59,23,60)           107.8994         estimate D2E/DX2                !
 ! A122  A(23,24,25)           113.4559         estimate D2E/DX2                !
 ! A123  A(23,24,61)           108.7078         estimate D2E/DX2                !
 ! A124  A(23,24,62)           109.3377         estimate D2E/DX2                !
 ! A125  A(25,24,61)           108.6959         estimate D2E/DX2                !
 ! A126  A(25,24,62)           109.7637         estimate D2E/DX2                !
 ! A127  A(61,24,62)           106.6473         estimate D2E/DX2                !
 ! A128  A(24,25,26)           109.7772         estimate D2E/DX2                !
 ! A129  A(24,25,27)           112.5123         estimate D2E/DX2                !
 ! A130  A(24,25,63)           108.7005         estimate D2E/DX2                !
 ! A131  A(26,25,27)           109.6792         estimate D2E/DX2                !
 ! A132  A(26,25,63)           107.8111         estimate D2E/DX2                !
 ! A133  A(27,25,63)           108.2323         estimate D2E/DX2                !
 ! A134  A(25,26,64)           111.2827         estimate D2E/DX2                !
 ! A135  A(25,26,65)           110.8314         estimate D2E/DX2                !
 ! A136  A(25,26,66)           110.8365         estimate D2E/DX2                !
 ! A137  A(64,26,65)           108.0614         estimate D2E/DX2                !
 ! A138  A(64,26,66)           108.0321         estimate D2E/DX2                !
 ! A139  A(65,26,66)           107.6565         estimate D2E/DX2                !
 ! A140  A(25,27,67)           111.2565         estimate D2E/DX2                !
 ! A141  A(25,27,68)           110.7566         estimate D2E/DX2                !
 ! A142  A(25,27,69)           111.4007         estimate D2E/DX2                !
 ! A143  A(67,27,68)           107.9476         estimate D2E/DX2                !
 ! A144  A(67,27,69)           108.2054         estimate D2E/DX2                !
 ! A145  A(68,27,69)           107.104          estimate D2E/DX2                !
 ! A146  A(21,28,70)           110.7269         estimate D2E/DX2                !
 ! A147  A(21,28,71)           110.8968         estimate D2E/DX2                !
 ! A148  A(21,28,72)           112.0193         estimate D2E/DX2                !
 ! A149  A(70,28,71)           107.2783         estimate D2E/DX2                !
 ! A150  A(70,28,72)           107.7279         estimate D2E/DX2                !
 ! A151  A(71,28,72)           108.0025         estimate D2E/DX2                !
 ! D1    D(29,1,2,3)           -46.0452         estimate D2E/DX2                !
 ! D2    D(29,1,2,17)           73.1118         estimate D2E/DX2                !
 ! D3    D(29,1,2,20)         -157.0377         estimate D2E/DX2                !
 ! D4    D(30,1,2,3)            73.5995         estimate D2E/DX2                !
 ! D5    D(30,1,2,17)         -167.2436         estimate D2E/DX2                !
 ! D6    D(30,1,2,20)          -37.393          estimate D2E/DX2                !
 ! D7    D(31,1,2,3)          -164.6721         estimate D2E/DX2                !
 ! D8    D(31,1,2,17)          -45.5152         estimate D2E/DX2                !
 ! D9    D(31,1,2,20)           84.3354         estimate D2E/DX2                !
 ! D10   D(1,2,3,4)             61.388          estimate D2E/DX2                !
 ! D11   D(1,2,3,18)           -72.4701         estimate D2E/DX2                !
 ! D12   D(1,2,3,32)           176.1546         estimate D2E/DX2                !
 ! D13   D(17,2,3,4)           -59.7122         estimate D2E/DX2                !
 ! D14   D(17,2,3,18)          166.4297         estimate D2E/DX2                !
 ! D15   D(17,2,3,32)           55.0543         estimate D2E/DX2                !
 ! D16   D(20,2,3,4)          -178.4291         estimate D2E/DX2                !
 ! D17   D(20,2,3,18)           47.7128         estimate D2E/DX2                !
 ! D18   D(20,2,3,32)          -63.6626         estimate D2E/DX2                !
 ! D19   D(1,2,17,16)          -61.6526         estimate D2E/DX2                !
 ! D20   D(1,2,17,49)          177.4376         estimate D2E/DX2                !
 ! D21   D(1,2,17,50)           60.0068         estimate D2E/DX2                !
 ! D22   D(3,2,17,16)           60.0918         estimate D2E/DX2                !
 ! D23   D(3,2,17,49)          -60.818          estimate D2E/DX2                !
 ! D24   D(3,2,17,50)         -178.2487         estimate D2E/DX2                !
 ! D25   D(20,2,17,16)         168.5814         estimate D2E/DX2                !
 ! D26   D(20,2,17,49)          47.6716         estimate D2E/DX2                !
 ! D27   D(20,2,17,50)         -69.7591         estimate D2E/DX2                !
 ! D28   D(1,2,20,19)           76.5076         estimate D2E/DX2                !
 ! D29   D(1,2,20,21)          -59.8755         estimate D2E/DX2                !
 ! D30   D(1,2,20,55)         -174.8261         estimate D2E/DX2                !
 ! D31   D(3,2,20,19)          -41.9394         estimate D2E/DX2                !
 ! D32   D(3,2,20,21)         -178.3225         estimate D2E/DX2                !
 ! D33   D(3,2,20,55)           66.7269         estimate D2E/DX2                !
 ! D34   D(17,2,20,19)        -155.421          estimate D2E/DX2                !
 ! D35   D(17,2,20,21)          68.1959         estimate D2E/DX2                !
 ! D36   D(17,2,20,55)         -46.7547         estimate D2E/DX2                !
 ! D37   D(2,3,4,5)             50.1299         estimate D2E/DX2                !
 ! D38   D(2,3,4,10)          -136.9991         estimate D2E/DX2                !
 ! D39   D(18,3,4,5)           174.443          estimate D2E/DX2                !
 ! D40   D(18,3,4,10)          -12.686          estimate D2E/DX2                !
 ! D41   D(32,3,4,5)           -67.1789         estimate D2E/DX2                !
 ! D42   D(32,3,4,10)          105.6921         estimate D2E/DX2                !
 ! D43   D(2,3,18,19)          -35.4952         estimate D2E/DX2                !
 ! D44   D(2,3,18,51)         -155.9766         estimate D2E/DX2                !
 ! D45   D(2,3,18,52)           83.2761         estimate D2E/DX2                !
 ! D46   D(4,3,18,19)         -164.5361         estimate D2E/DX2                !
 ! D47   D(4,3,18,51)           74.9825         estimate D2E/DX2                !
 ! D48   D(4,3,18,52)          -45.7648         estimate D2E/DX2                !
 ! D49   D(32,3,18,19)          77.8768         estimate D2E/DX2                !
 ! D50   D(32,3,18,51)         -42.6046         estimate D2E/DX2                !
 ! D51   D(32,3,18,52)        -163.3519         estimate D2E/DX2                !
 ! D52   D(3,4,5,6)           -167.8783         estimate D2E/DX2                !
 ! D53   D(3,4,5,16)           -38.5308         estimate D2E/DX2                !
 ! D54   D(3,4,5,33)            75.713          estimate D2E/DX2                !
 ! D55   D(10,4,5,6)            19.0815         estimate D2E/DX2                !
 ! D56   D(10,4,5,16)          148.429          estimate D2E/DX2                !
 ! D57   D(10,4,5,33)          -97.3273         estimate D2E/DX2                !
 ! D58   D(3,4,10,9)          -165.9456         estimate D2E/DX2                !
 ! D59   D(3,4,10,38)            4.62           estimate D2E/DX2                !
 ! D60   D(5,4,10,9)             6.5251         estimate D2E/DX2                !
 ! D61   D(5,4,10,38)          177.0907         estimate D2E/DX2                !
 ! D62   D(4,5,6,7)             84.2589         estimate D2E/DX2                !
 ! D63   D(4,5,6,8)            -34.2866         estimate D2E/DX2                !
 ! D64   D(4,5,6,15)          -155.5669         estimate D2E/DX2                !
 ! D65   D(16,5,6,7)           -45.3104         estimate D2E/DX2                !
 ! D66   D(16,5,6,8)          -163.8559         estimate D2E/DX2                !
 ! D67   D(16,5,6,15)           74.8638         estimate D2E/DX2                !
 ! D68   D(33,5,6,7)          -161.2075         estimate D2E/DX2                !
 ! D69   D(33,5,6,8)            80.247          estimate D2E/DX2                !
 ! D70   D(33,5,6,15)          -41.0333         estimate D2E/DX2                !
 ! D71   D(4,5,16,17)           40.1548         estimate D2E/DX2                !
 ! D72   D(4,5,16,47)          -81.3574         estimate D2E/DX2                !
 ! D73   D(4,5,16,48)          162.1645         estimate D2E/DX2                !
 ! D74   D(6,5,16,17)          169.8489         estimate D2E/DX2                !
 ! D75   D(6,5,16,47)           48.3367         estimate D2E/DX2                !
 ! D76   D(6,5,16,48)          -68.1414         estimate D2E/DX2                !
 ! D77   D(33,5,16,17)         -73.2239         estimate D2E/DX2                !
 ! D78   D(33,5,16,47)         165.2639         estimate D2E/DX2                !
 ! D79   D(33,5,16,48)          48.7857         estimate D2E/DX2                !
 ! D80   D(5,6,7,34)          -169.8573         estimate D2E/DX2                !
 ! D81   D(5,6,7,35)            71.5334         estimate D2E/DX2                !
 ! D82   D(5,6,7,36)           -49.9218         estimate D2E/DX2                !
 ! D83   D(8,6,7,34)           -48.809          estimate D2E/DX2                !
 ! D84   D(8,6,7,35)          -167.4183         estimate D2E/DX2                !
 ! D85   D(8,6,7,36)            71.1266         estimate D2E/DX2                !
 ! D86   D(15,6,7,34)           68.6547         estimate D2E/DX2                !
 ! D87   D(15,6,7,35)          -49.9546         estimate D2E/DX2                !
 ! D88   D(15,6,7,36)         -171.4098         estimate D2E/DX2                !
 ! D89   D(5,6,8,9)             28.6571         estimate D2E/DX2                !
 ! D90   D(5,6,8,11)          -149.1286         estimate D2E/DX2                !
 ! D91   D(7,6,8,9)            -93.0917         estimate D2E/DX2                !
 ! D92   D(7,6,8,11)            89.1226         estimate D2E/DX2                !
 ! D93   D(15,6,8,9)           150.4126         estimate D2E/DX2                !
 ! D94   D(15,6,8,11)          -27.373          estimate D2E/DX2                !
 ! D95   D(5,6,15,14)           89.4272         estimate D2E/DX2                !
 ! D96   D(5,6,15,45)          -33.1571         estimate D2E/DX2                !
 ! D97   D(5,6,15,46)         -149.8722         estimate D2E/DX2                !
 ! D98   D(7,6,15,14)         -148.1236         estimate D2E/DX2                !
 ! D99   D(7,6,15,45)           89.2921         estimate D2E/DX2                !
 ! D100  D(7,6,15,46)          -27.423          estimate D2E/DX2                !
 ! D101  D(8,6,15,14)          -32.6054         estimate D2E/DX2                !
 ! D102  D(8,6,15,45)         -155.1897         estimate D2E/DX2                !
 ! D103  D(8,6,15,46)           88.0952         estimate D2E/DX2                !
 ! D104  D(6,8,9,10)            -4.2615         estimate D2E/DX2                !
 ! D105  D(6,8,9,37)           179.8121         estimate D2E/DX2                !
 ! D106  D(11,8,9,10)          173.3896         estimate D2E/DX2                !
 ! D107  D(11,8,9,37)           -2.5368         estimate D2E/DX2                !
 ! D108  D(6,8,11,12)           59.8247         estimate D2E/DX2                !
 ! D109  D(6,8,11,39)         -178.3524         estimate D2E/DX2                !
 ! D110  D(6,8,11,40)          -62.4612         estimate D2E/DX2                !
 ! D111  D(9,8,11,12)         -117.943          estimate D2E/DX2                !
 ! D112  D(9,8,11,39)            3.88           estimate D2E/DX2                !
 ! D113  D(9,8,11,40)          119.7712         estimate D2E/DX2                !
 ! D114  D(8,9,10,4)           -15.5731         estimate D2E/DX2                !
 ! D115  D(8,9,10,38)          173.3707         estimate D2E/DX2                !
 ! D116  D(37,9,10,4)          160.5246         estimate D2E/DX2                !
 ! D117  D(37,9,10,38)         -10.5315         estimate D2E/DX2                !
 ! D118  D(8,11,12,13)        -149.0287         estimate D2E/DX2                !
 ! D119  D(8,11,12,14)         -27.8341         estimate D2E/DX2                !
 ! D120  D(8,11,12,41)          94.6003         estimate D2E/DX2                !
 ! D121  D(39,11,12,13)         87.511          estimate D2E/DX2                !
 ! D122  D(39,11,12,14)       -151.2944         estimate D2E/DX2                !
 ! D123  D(39,11,12,41)        -28.8601         estimate D2E/DX2                !
 ! D124  D(40,11,12,13)        -27.4475         estimate D2E/DX2                !
 ! D125  D(40,11,12,14)         93.7471         estimate D2E/DX2                !
 ! D126  D(40,11,12,41)       -143.8185         estimate D2E/DX2                !
 ! D127  D(11,12,13,42)       -174.9341         estimate D2E/DX2                !
 ! D128  D(14,12,13,42)         61.2705         estimate D2E/DX2                !
 ! D129  D(41,12,13,42)        -56.7229         estimate D2E/DX2                !
 ! D130  D(11,12,14,15)        -29.6318         estimate D2E/DX2                !
 ! D131  D(11,12,14,43)       -151.3589         estimate D2E/DX2                !
 ! D132  D(11,12,14,44)         90.8997         estimate D2E/DX2                !
 ! D133  D(13,12,14,15)         90.9142         estimate D2E/DX2                !
 ! D134  D(13,12,14,43)        -30.8129         estimate D2E/DX2                !
 ! D135  D(13,12,14,44)       -148.5543         estimate D2E/DX2                !
 ! D136  D(41,12,14,15)       -152.4522         estimate D2E/DX2                !
 ! D137  D(41,12,14,43)         85.8206         estimate D2E/DX2                !
 ! D138  D(41,12,14,44)        -31.9207         estimate D2E/DX2                !
 ! D139  D(12,14,15,6)          62.7154         estimate D2E/DX2                !
 ! D140  D(12,14,15,45)       -173.7344         estimate D2E/DX2                !
 ! D141  D(12,14,15,46)        -59.2868         estimate D2E/DX2                !
 ! D142  D(43,14,15,6)        -174.7924         estimate D2E/DX2                !
 ! D143  D(43,14,15,45)        -51.2421         estimate D2E/DX2                !
 ! D144  D(43,14,15,46)         63.2055         estimate D2E/DX2                !
 ! D145  D(44,14,15,6)         -58.0526         estimate D2E/DX2                !
 ! D146  D(44,14,15,45)         65.4976         estimate D2E/DX2                !
 ! D147  D(44,14,15,46)        179.9452         estimate D2E/DX2                !
 ! D148  D(5,16,17,2)          -52.676          estimate D2E/DX2                !
 ! D149  D(5,16,17,49)          69.2581         estimate D2E/DX2                !
 ! D150  D(5,16,17,50)        -174.8733         estimate D2E/DX2                !
 ! D151  D(47,16,17,2)          70.9689         estimate D2E/DX2                !
 ! D152  D(47,16,17,49)       -167.0969         estimate D2E/DX2                !
 ! D153  D(47,16,17,50)        -51.2283         estimate D2E/DX2                !
 ! D154  D(48,16,17,2)        -175.3579         estimate D2E/DX2                !
 ! D155  D(48,16,17,49)        -53.4237         estimate D2E/DX2                !
 ! D156  D(48,16,17,50)         62.4449         estimate D2E/DX2                !
 ! D157  D(3,18,19,20)           8.6407         estimate D2E/DX2                !
 ! D158  D(3,18,19,53)         131.8491         estimate D2E/DX2                !
 ! D159  D(3,18,19,54)        -110.6164         estimate D2E/DX2                !
 ! D160  D(51,18,19,20)        129.5352         estimate D2E/DX2                !
 ! D161  D(51,18,19,53)       -107.2564         estimate D2E/DX2                !
 ! D162  D(51,18,19,54)         10.278          estimate D2E/DX2                !
 ! D163  D(52,18,19,20)       -111.3829         estimate D2E/DX2                !
 ! D164  D(52,18,19,53)         11.8255         estimate D2E/DX2                !
 ! D165  D(52,18,19,54)        129.36           estimate D2E/DX2                !
 ! D166  D(18,19,20,2)          21.1686         estimate D2E/DX2                !
 ! D167  D(18,19,20,21)        159.2651         estimate D2E/DX2                !
 ! D168  D(18,19,20,55)        -88.0916         estimate D2E/DX2                !
 ! D169  D(53,19,20,2)         -99.4761         estimate D2E/DX2                !
 ! D170  D(53,19,20,21)         38.6204         estimate D2E/DX2                !
 ! D171  D(53,19,20,55)        151.2638         estimate D2E/DX2                !
 ! D172  D(54,19,20,2)         140.4434         estimate D2E/DX2                !
 ! D173  D(54,19,20,21)        -81.4602         estimate D2E/DX2                !
 ! D174  D(54,19,20,55)         31.1832         estimate D2E/DX2                !
 ! D175  D(2,20,21,22)          57.5019         estimate D2E/DX2                !
 ! D176  D(2,20,21,28)        -172.9326         estimate D2E/DX2                !
 ! D177  D(2,20,21,56)         -59.9981         estimate D2E/DX2                !
 ! D178  D(19,20,21,22)        -73.1174         estimate D2E/DX2                !
 ! D179  D(19,20,21,28)         56.448          estimate D2E/DX2                !
 ! D180  D(19,20,21,56)        169.3826         estimate D2E/DX2                !
 ! D181  D(55,20,21,22)        173.5206         estimate D2E/DX2                !
 ! D182  D(55,20,21,28)        -56.9139         estimate D2E/DX2                !
 ! D183  D(55,20,21,56)         56.0206         estimate D2E/DX2                !
 ! D184  D(20,21,22,23)         65.0649         estimate D2E/DX2                !
 ! D185  D(20,21,22,57)        -61.4015         estimate D2E/DX2                !
 ! D186  D(20,21,22,58)       -173.9321         estimate D2E/DX2                !
 ! D187  D(28,21,22,23)        -64.474          estimate D2E/DX2                !
 ! D188  D(28,21,22,57)        169.0596         estimate D2E/DX2                !
 ! D189  D(28,21,22,58)         56.529          estimate D2E/DX2                !
 ! D190  D(56,21,22,23)       -177.1143         estimate D2E/DX2                !
 ! D191  D(56,21,22,57)         56.4193         estimate D2E/DX2                !
 ! D192  D(56,21,22,58)        -56.1113         estimate D2E/DX2                !
 ! D193  D(20,21,28,70)         55.1508         estimate D2E/DX2                !
 ! D194  D(20,21,28,71)        174.124          estimate D2E/DX2                !
 ! D195  D(20,21,28,72)        -65.1286         estimate D2E/DX2                !
 ! D196  D(22,21,28,70)       -169.5859         estimate D2E/DX2                !
 ! D197  D(22,21,28,71)        -50.6127         estimate D2E/DX2                !
 ! D198  D(22,21,28,72)         70.1347         estimate D2E/DX2                !
 ! D199  D(56,21,28,70)        -57.572          estimate D2E/DX2                !
 ! D200  D(56,21,28,71)         61.4012         estimate D2E/DX2                !
 ! D201  D(56,21,28,72)       -177.8514         estimate D2E/DX2                !
 ! D202  D(21,22,23,24)        173.4003         estimate D2E/DX2                !
 ! D203  D(21,22,23,59)         52.3067         estimate D2E/DX2                !
 ! D204  D(21,22,23,60)        -66.5304         estimate D2E/DX2                !
 ! D205  D(57,22,23,24)        -59.9209         estimate D2E/DX2                !
 ! D206  D(57,22,23,59)        178.9855         estimate D2E/DX2                !
 ! D207  D(57,22,23,60)         60.1484         estimate D2E/DX2                !
 ! D208  D(58,22,23,24)         52.6997         estimate D2E/DX2                !
 ! D209  D(58,22,23,59)        -68.3939         estimate D2E/DX2                !
 ! D210  D(58,22,23,60)        172.769          estimate D2E/DX2                !
 ! D211  D(22,23,24,25)       -175.8996         estimate D2E/DX2                !
 ! D212  D(22,23,24,61)        -54.8459         estimate D2E/DX2                !
 ! D213  D(22,23,24,62)         61.2185         estimate D2E/DX2                !
 ! D214  D(59,23,24,25)        -53.9691         estimate D2E/DX2                !
 ! D215  D(59,23,24,61)         67.0846         estimate D2E/DX2                !
 ! D216  D(59,23,24,62)       -176.851          estimate D2E/DX2                !
 ! D217  D(60,23,24,25)         63.3986         estimate D2E/DX2                !
 ! D218  D(60,23,24,61)       -175.5477         estimate D2E/DX2                !
 ! D219  D(60,23,24,62)        -59.4832         estimate D2E/DX2                !
 ! D220  D(23,24,25,26)        174.0658         estimate D2E/DX2                !
 ! D221  D(23,24,25,27)        -63.4944         estimate D2E/DX2                !
 ! D222  D(23,24,25,63)         56.3633         estimate D2E/DX2                !
 ! D223  D(61,24,25,26)         53.0054         estimate D2E/DX2                !
 ! D224  D(61,24,25,27)        175.4452         estimate D2E/DX2                !
 ! D225  D(61,24,25,63)        -64.6971         estimate D2E/DX2                !
 ! D226  D(62,24,25,26)        -63.2874         estimate D2E/DX2                !
 ! D227  D(62,24,25,27)         59.1524         estimate D2E/DX2                !
 ! D228  D(62,24,25,63)        179.0101         estimate D2E/DX2                !
 ! D229  D(24,25,26,64)         62.0014         estimate D2E/DX2                !
 ! D230  D(24,25,26,65)        -58.2779         estimate D2E/DX2                !
 ! D231  D(24,25,26,66)       -177.753          estimate D2E/DX2                !
 ! D232  D(27,25,26,64)        -62.1042         estimate D2E/DX2                !
 ! D233  D(27,25,26,65)        177.6165         estimate D2E/DX2                !
 ! D234  D(27,25,26,66)         58.1414         estimate D2E/DX2                !
 ! D235  D(63,25,26,64)       -179.7438         estimate D2E/DX2                !
 ! D236  D(63,25,26,65)         59.977          estimate D2E/DX2                !
 ! D237  D(63,25,26,66)        -59.4982         estimate D2E/DX2                !
 ! D238  D(24,25,27,67)        -55.6805         estimate D2E/DX2                !
 ! D239  D(24,25,27,68)       -175.7484         estimate D2E/DX2                !
 ! D240  D(24,25,27,69)         65.1509         estimate D2E/DX2                !
 ! D241  D(26,25,27,67)         66.8145         estimate D2E/DX2                !
 ! D242  D(26,25,27,68)        -53.2534         estimate D2E/DX2                !
 ! D243  D(26,25,27,69)       -172.3541         estimate D2E/DX2                !
 ! D244  D(63,25,27,67)       -175.8091         estimate D2E/DX2                !
 ! D245  D(63,25,27,68)         64.123          estimate D2E/DX2                !
 ! D246  D(63,25,27,69)        -54.9777         estimate D2E/DX2                !
 --------------------------------------------------------------------------------
 Trust Radius=3.00D-01 FncErr=1.00D-07 GrdErr=1.00D-06 EigMax=2.50D+02 EigMin=1.00D-04
 Number of steps in this run=    432 maximum allowed number of steps=    432.
 GradGradGradGradGradGradGradGradGradGradGradGradGradGradGradGradGradGrad

 Leave Link  103 at Mon Jul 28 18:37:06 2025, MaxMem=  1073741824 cpu:               0.1 elap:               0.0
 (Enter /app/gaussian/g16/l202.exe)
 Stoichiometry    C27H44O
 Framework group  C1[X(C27H44O)]
 Deg. of freedom   210
 Full point group                 C1      NOp   1
 Largest Abelian subgroup         C1      NOp   1
 Largest concise Abelian subgroup C1      NOp   1
                         Standard orientation:                         
 ---------------------------------------------------------------------
 Center     Atomic      Atomic             Coordinates (Angstroms)
 Number     Number       Type             X           Y           Z
 ---------------------------------------------------------------------
      1          6           0       -1.123704   -0.443674   -0.614730
      2          6           0       -0.686207    0.946311   -0.100928
      3          6           0        0.201814    0.831678    1.161297
      4          6           0        1.485079    0.076342    0.932043
      5          6           0        2.308611    0.534685   -0.283199
      6          6           0        3.480750   -0.474364   -0.663369
      7          6           0        2.975984   -1.631153   -1.561415
      8          6           0        4.066315   -1.125577    0.596284
      9          6           0        3.324003   -1.312338    1.699064
     10          6           0        1.968998   -0.833403    1.794819
     11          6           0        5.525140   -1.491669    0.538730
     12          6           0        6.398380   -0.252058    0.284486
     13          8           0        7.552211   -0.666605   -0.452000
     14          6           0        5.673324    0.857195   -0.494542
     15          6           0        4.611163    0.276149   -1.433784
     16          6           0        1.422794    0.911900   -1.511481
     17          6           0        0.137269    1.681680   -1.171276
     18          6           0       -0.793770    0.419316    2.251431
     19          6           0       -2.091970    1.166666    1.888845
     20          6           0       -1.848538    1.791452    0.495494
     21          6           0       -3.082765    2.183440   -0.356951
     22          6           0       -3.953511    1.103302   -1.031799
     23          6           0       -4.725821    0.145439   -0.121917
     24          6           0       -5.662485   -0.754066   -0.939814
     25          6           0       -6.542446   -1.673117   -0.071767
     26          6           0       -7.541621   -2.421343   -0.957777
     27          6           0       -5.720240   -2.676654    0.738377
     28          6           0       -3.975348    3.157841    0.433178
     29          1           0       -0.292273   -1.154900   -0.650031
     30          1           0       -1.887311   -0.902471    0.017159
     31          1           0       -1.512760   -0.385376   -1.634545
     32          1           0        0.538240    1.845716    1.438697
     33          1           0        2.777308    1.475131    0.045888
     34          1           0        3.734374   -2.415595   -1.674684
     35          1           0        2.743023   -1.285281   -2.574258
     36          1           0        2.080149   -2.105981   -1.145848
     37          1           0        3.742959   -1.776982    2.587863
     38          1           0        1.416273   -1.130105    2.681320
     39          1           0        5.858668   -1.976966    1.464616
     40          1           0        5.680885   -2.240276   -0.248469
     41          1           0        6.755880    0.153377    1.238565
     42          1           0        8.136411    0.106397   -0.537477
     43          1           0        6.387939    1.449240   -1.078147
     44          1           0        5.188796    1.541636    0.212299
     45          1           0        4.196440    1.080976   -2.049803
     46          1           0        5.112699   -0.405301   -2.134708
     47          1           0        1.122595    0.018426   -2.065944
     48          1           0        2.009108    1.516928   -2.212597
     49          1           0        0.409340    2.686617   -0.823817
     50          1           0       -0.457464    1.819027   -2.082330
     51          1           0       -0.442232    0.695541    3.251197
     52          1           0       -0.972903   -0.662134    2.250163
     53          1           0       -2.934805    0.476269    1.919007
     54          1           0       -2.295912    1.952125    2.625806
     55          1           0       -1.392787    2.771985    0.721937
     56          1           0       -2.677451    2.771565   -1.193946
     57          1           0       -3.355416    0.530818   -1.743863
     58          1           0       -4.687756    1.628904   -1.659442
     59          1           0       -5.316918    0.705258    0.609939
     60          1           0       -4.026072   -0.486259    0.425329
     61          1           0       -6.314845   -0.118402   -1.552485
     62          1           0       -5.068382   -1.359134   -1.636772
     63          1           0       -7.114707   -1.052561    0.629477
     64          1           0       -7.028085   -3.065120   -1.680218
     65          1           0       -8.169847   -1.718717   -1.515571
     66          1           0       -8.203302   -3.050767   -0.353130
     67          1           0       -5.071715   -3.274547    0.089212
     68          1           0       -6.375298   -3.363165    1.285756
     69          1           0       -5.091774   -2.172593    1.478672
     70          1           0       -3.400021    4.029689    0.763439
     71          1           0       -4.797230    3.527293   -0.189580
     72          1           0       -4.408704    2.688679    1.321516
 ---------------------------------------------------------------------
 Rotational constants (GHZ):           0.3927346           0.0683035           0.0655029
 Leave Link  202 at Mon Jul 28 18:37:06 2025, MaxMem=  1073741824 cpu:               0.1 elap:               0.0
 (Enter /app/gaussian/g16/l301.exe)
 Standard basis: 6-31+G (6D, 7F)
 Ernie: Thresh=  0.10000D-02 Tol=  0.10000D-05 Strict=F.
 There are   452 symmetry adapted cartesian basis functions of A   symmetry.
 There are   452 symmetry adapted basis functions of A   symmetry.
   452 basis functions,   904 primitive gaussians,   452 cartesian basis functions
   107 alpha electrons      107 beta electrons
       nuclear repulsion energy      2797.1758092209 Hartrees.
 IExCor=  402 DFT=T Ex+Corr=B3LYP ExCW=0 ScaHFX=  0.200000
 ScaDFX=  0.800000  0.720000  1.000000  0.810000 ScalE2=  1.000000  1.000000
 IRadAn=      5 IRanWt=     -1 IRanGd=            0 ICorTp=0 IEmpDi=  4
 NAtoms=   72 NActive=   72 NUniq=   72 SFac= 1.00D+00 NAtFMM=   60 NAOKFM=T Big=T
 Integral buffers will be    131072 words long.
 Raffenetti 2 integral format.
 Two-electron integral symmetry is turned on.
 Leave Link  301 at Mon Jul 28 18:37:06 2025, MaxMem=  1073741824 cpu:               0.4 elap:               0.1
 (Enter /app/gaussian/g16/l302.exe)
 NPDir=0 NMtPBC=     1 NCelOv=     1 NCel=       1 NClECP=     1 NCelD=      1
         NCelK=      1 NCelE2=     1 NClLst=     1 CellRange=     0.0.
 One-electron integrals computed using PRISM.
 One-electron integral symmetry used in STVInt
 NBasis=   452 RedAO= T EigKep=  1.21D-06  NBF=   452
 NBsUse=   449 1.00D-06 EigRej=  7.93D-07 NBFU=   449
 Precomputing XC quadrature grid using
 IXCGrd= 4 IRadAn=           5 IRanWt=          -1 IRanGd=           0 AccXCQ= 0.00D+00.
 Generated NRdTot=       0 NPtTot=           0 NUsed=           0 NTot=          32
 NSgBfM=   442   439   439   441   442 MxSgAt=    72 MxSgA2=    72.
 Leave Link  302 at Mon Jul 28 18:37:08 2025, MaxMem=  1073741824 cpu:              10.6 elap:               1.3
 (Enter /app/gaussian/g16/l303.exe)
 DipDrv:  MaxL=1.
 Leave Link  303 at Mon Jul 28 18:37:08 2025, MaxMem=  1073741824 cpu:               0.5 elap:               0.1
 (Enter /app/gaussian/g16/l401.exe)
 ExpMin= 4.38D-02 ExpMax= 5.48D+03 ExpMxC= 8.25D+02 IAcc=3 IRadAn=         5 AccDes= 0.00D+00
 Harris functional with IExCor=  402 and IRadAn=       5 diagonalized for initial guess.
 HarFok:  IExCor=  402 AccDes= 0.00D+00 IRadAn=         5 IDoV= 1 UseB2=F ITyADJ=14
 ICtDFT=  3500011 ScaDFX=  1.000000  1.000000  1.000000  1.000000
 FoFCou: FMM=F IPFlag=           0 FMFlag=      100000 FMFlg1=        2001
         NFxFlg=           0 DoJE=T BraDBF=F KetDBF=T FulRan=T
         wScrn=  0.000000 ICntrl=       500 IOpCl=  0 I1Cent=   200000004 NGrid=           0
         NMat0=    1 NMatS0=      1 NMatT0=    0 NMatD0=    1 NMtDS0=    0 NMtDT0=    0
 Petite list used in FoFCou.
 Harris En= -1130.41005728239    
 JPrj=0 DoOrth=F DoCkMO=F.
 Leave Link  401 at Mon Jul 28 18:37:17 2025, MaxMem=  1073741824 cpu:              72.8 elap:               9.1
 (Enter /app/gaussian/g16/l502.exe)
 Integral symmetry usage will be decided dynamically.
 Closed shell SCF:
 Using DIIS extrapolation, IDIIS=  1040.
 NGot=  1073741824 LenX=  1073322182 LenY=  1073117426
 Requested convergence on RMS density matrix=1.00D-08 within 128 cycles.
 Requested convergence on MAX density matrix=1.00D-06.
 Requested convergence on             energy=1.00D-06.
 No special actions if energy rises.
 Fock matrices will be formed incrementally for  20 cycles.

 Cycle   1  Pass 1  IDiag  1:
 FoFJK:  IHMeth= 1 ICntrl=       0 DoSepK=F KAlg= 0 I1Cent=           0 FoldK=F
 IRaf= 990000000 NMat=       1 IRICut=       1 DoRegI=T DoRafI=F ISym2E= 0 IDoP0=0 IntGTp=1.
 FoFCou: FMM=T IPFlag=           0 FMFlag=      100000 FMFlg1=        2001
         NFxFlg=           0 DoJE=F BraDBF=F KetDBF=F FulRan=T
         wScrn=  0.000000 ICntrl=         0 IOpCl=  0 I1Cent=           0 NGrid=           0
         NMat0=    1 NMatS0=      1 NMatT0=    0 NMatD0=    1 NMtDS0=    0 NMtDT0=    0
 Symmetry not used in FoFCou.
 FMM levels:  10  Number of levels for PrismC:   9
 E= -1129.44726938815    
 DIIS: error= 2.19D-02 at cycle   1 NSaved=   1.
 NSaved= 1 IEnMin= 1 EnMin= -1129.44726938815     IErMin= 1 ErrMin= 2.19D-02
 ErrMax= 2.19D-02  0.00D+00 EMaxC= 1.00D-01 BMatC= 7.63D-01 BMatP= 7.63D-01
 IDIUse=3 WtCom= 7.81D-01 WtEn= 2.19D-01
 Coeff-Com:  0.100D+01
 Coeff-En:   0.100D+01
 Coeff:      0.100D+01
 Gap=     0.176 Goal=   None    Shift=    0.000
 GapD=    0.176 DampG=1.000 DampE=0.500 DampFc=0.5000 IDamp=-1.
 Damping current iteration by 5.00D-01
 RMSDP=1.98D-01 MaxDP=2.61D+01              OVMax= 1.89D-01

 Cycle   2  Pass 1  IDiag  1:
 RMSU=  5.85D-02    CP:  1.71D+00
 E= -1129.79727567914     Delta-E=       -0.350006290985 Rises=F Damp=T
 DIIS: error= 4.26D-03 at cycle   2 NSaved=   2.
 NSaved= 2 IEnMin= 2 EnMin= -1129.79727567914     IErMin= 2 ErrMin= 4.26D-03
 ErrMax= 4.26D-03  0.00D+00 EMaxC= 1.00D-01 BMatC= 3.58D-02 BMatP= 7.63D-01
 IDIUse=3 WtCom= 9.57D-01 WtEn= 4.26D-02
 Coeff-Com:  0.105D+00 0.895D+00
 Coeff-En:   0.192D+00 0.808D+00
 Coeff:      0.108D+00 0.892D+00
 Gap=     0.198 Goal=   None    Shift=    0.000
 RMSDP=1.04D-01 MaxDP=1.41D+01 DE=-3.50D-01 OVMax= 1.11D-01

 Cycle   3  Pass 1  IDiag  1:
 RMSU=  1.56D-02    CP:  9.13D-01  1.26D-01
 E= -1130.30186374905     Delta-E=       -0.504588069910 Rises=F Damp=F
 DIIS: error= 4.18D-03 at cycle   3 NSaved=   3.
 NSaved= 3 IEnMin= 3 EnMin= -1130.30186374905     IErMin= 3 ErrMin= 4.18D-03
 ErrMax= 4.18D-03  0.00D+00 EMaxC= 1.00D-01 BMatC= 1.34D-02 BMatP= 3.58D-02
 IDIUse=3 WtCom= 9.58D-01 WtEn= 4.18D-02
 Coeff-Com:  0.912D-02 0.361D+00 0.630D+00
 Coeff-En:   0.000D+00 0.000D+00 0.100D+01
 Coeff:      0.874D-02 0.346D+00 0.645D+00
 Gap=     0.175 Goal=   None    Shift=    0.000
 RMSDP=8.93D-03 MaxDP=5.06D-01 DE=-5.05D-01 OVMax= 3.00D-02

 Cycle   4  Pass 1  IDiag  1:
 RMSU=  5.87D-03    CP:  9.27D-01  2.19D-01  7.66D-01
 E= -1130.31044033217     Delta-E=       -0.008576583123 Rises=F Damp=F
 DIIS: error= 2.55D-03 at cycle   4 NSaved=   4.
 NSaved= 4 IEnMin= 4 EnMin= -1130.31044033217     IErMin= 4 ErrMin= 2.55D-03
 ErrMax= 2.55D-03  0.00D+00 EMaxC= 1.00D-01 BMatC= 4.89D-03 BMatP= 1.34D-02
 IDIUse=3 WtCom= 9.74D-01 WtEn= 2.55D-02
 Coeff-Com: -0.110D-01 0.891D-01 0.393D+00 0.529D+00
 Coeff-En:   0.000D+00 0.000D+00 0.259D+00 0.741D+00
 Coeff:     -0.107D-01 0.868D-01 0.390D+00 0.534D+00
 Gap=     0.174 Goal=   None    Shift=    0.000
 RMSDP=2.92D-03 MaxDP=3.05D-01 DE=-8.58D-03 OVMax= 1.90D-02

 Cycle   5  Pass 1  IDiag  1:
 RMSU=  1.85D-03    CP:  9.41D-01  2.12D-01  7.72D-01  7.35D-01
 E= -1130.31471125359     Delta-E=       -0.004270921416 Rises=F Damp=F
 DIIS: error= 7.68D-04 at cycle   5 NSaved=   5.
 NSaved= 5 IEnMin= 5 EnMin= -1130.31471125359     IErMin= 5 ErrMin= 7.68D-04
 ErrMax= 7.68D-04  0.00D+00 EMaxC= 1.00D-01 BMatC= 1.99D-04 BMatP= 4.89D-03
 IDIUse=3 WtCom= 9.92D-01 WtEn= 7.68D-03
 Coeff-Com: -0.571D-02 0.258D-01 0.161D+00 0.270D+00 0.548D+00
 Coeff-En:   0.000D+00 0.000D+00 0.000D+00 0.000D+00 0.100D+01
 Coeff:     -0.567D-02 0.256D-01 0.160D+00 0.268D+00 0.552D+00
 Gap=     0.175 Goal=   None    Shift=    0.000
 RMSDP=1.03D-03 MaxDP=7.96D-02 DE=-4.27D-03 OVMax= 6.68D-03

 Cycle   6  Pass 1  IDiag  1:
 RMSU=  4.86D-04    CP:  9.36D-01  2.04D-01  7.90D-01  6.99D-01  7.97D-01
 E= -1130.31489108950     Delta-E=       -0.000179835911 Rises=F Damp=F
 DIIS: error= 3.29D-04 at cycle   6 NSaved=   6.
 NSaved= 6 IEnMin= 6 EnMin= -1130.31489108950     IErMin= 6 ErrMin= 3.29D-04
 ErrMax= 3.29D-04  0.00D+00 EMaxC= 1.00D-01 BMatC= 3.40D-05 BMatP= 1.99D-04
 IDIUse=3 WtCom= 9.97D-01 WtEn= 3.29D-03
 Coeff-Com: -0.178D-02 0.312D-02 0.409D-01 0.877D-01 0.331D+00 0.539D+00
 Coeff-En:   0.000D+00 0.000D+00 0.000D+00 0.000D+00 0.133D+00 0.867D+00
 Coeff:     -0.178D-02 0.311D-02 0.407D-01 0.874D-01 0.330D+00 0.540D+00
 Gap=     0.175 Goal=   None    Shift=    0.000
 RMSDP=2.17D-04 MaxDP=1.37D-02 DE=-1.80D-04 OVMax= 2.35D-03

 Cycle   7  Pass 1  IDiag  1:
 RMSU=  1.46D-04    CP:  9.37D-01  2.04D-01  7.92D-01  6.97D-01  7.87D-01
                    CP:  6.96D-01
 E= -1130.31492525269     Delta-E=       -0.000034163191 Rises=F Damp=F
 DIIS: error= 6.39D-05 at cycle   7 NSaved=   7.
 NSaved= 7 IEnMin= 7 EnMin= -1130.31492525269     IErMin= 7 ErrMin= 6.39D-05
 ErrMax= 6.39D-05  0.00D+00 EMaxC= 1.00D-01 BMatC= 2.47D-06 BMatP= 3.40D-05
 IDIUse=1 WtCom= 1.00D+00 WtEn= 0.00D+00
 Coeff-Com: -0.601D-03-0.921D-04 0.126D-01 0.323D-01 0.151D+00 0.309D+00
 Coeff-Com:  0.496D+00
 Coeff:     -0.601D-03-0.921D-04 0.126D-01 0.323D-01 0.151D+00 0.309D+00
 Coeff:      0.496D+00
 Gap=     0.175 Goal=   None    Shift=    0.000
 RMSDP=7.68D-05 MaxDP=4.01D-03 DE=-3.42D-05 OVMax= 4.33D-04

 Cycle   8  Pass 1  IDiag  1:
 RMSU=  3.64D-05    CP:  9.37D-01  2.05D-01  7.90D-01  7.03D-01  7.87D-01
                    CP:  6.79D-01  8.09D-01
 E= -1130.31492765431     Delta-E=       -0.000002401618 Rises=F Damp=F
 DIIS: error= 9.61D-06 at cycle   8 NSaved=   8.
 NSaved= 8 IEnMin= 8 EnMin= -1130.31492765431     IErMin= 8 ErrMin= 9.61D-06
 ErrMax= 9.61D-06  0.00D+00 EMaxC= 1.00D-01 BMatC= 1.19D-07 BMatP= 2.47D-06
 IDIUse=1 WtCom= 1.00D+00 WtEn= 0.00D+00
 Coeff-Com: -0.105D-03-0.301D-03 0.231D-02 0.768D-02 0.435D-01 0.104D+00
 Coeff-Com:  0.239D+00 0.604D+00
 Coeff:     -0.105D-03-0.301D-03 0.231D-02 0.768D-02 0.435D-01 0.104D+00
 Coeff:      0.239D+00 0.604D+00
 Gap=     0.175 Goal=   None    Shift=    0.000
 RMSDP=2.88D-05 MaxDP=3.53D-03 DE=-2.40D-06 OVMax= 7.58D-05

 Cycle   9  Pass 1  IDiag  1:
 RMSU=  1.49D-05    CP:  9.37D-01  2.05D-01  7.90D-01  7.03D-01  7.88D-01
                    CP:  6.69D-01  7.54D-01  1.08D+00
 E= -1130.31492776627     Delta-E=       -0.000000111963 Rises=F Damp=F
 DIIS: error= 3.30D-06 at cycle   9 NSaved=   9.
 NSaved= 9 IEnMin= 9 EnMin= -1130.31492776627     IErMin= 9 ErrMin= 3.30D-06
 ErrMax= 3.30D-06  0.00D+00 EMaxC= 1.00D-01 BMatC= 8.17D-09 BMatP= 1.19D-07
 IDIUse=1 WtCom= 1.00D+00 WtEn= 0.00D+00
 Coeff-Com:  0.225D-05-0.125D-03 0.117D-03 0.103D-02 0.744D-02 0.226D-01
 Coeff-Com:  0.658D-01 0.273D+00 0.630D+00
 Coeff:      0.225D-05-0.125D-03 0.117D-03 0.103D-02 0.744D-02 0.226D-01
 Coeff:      0.658D-01 0.273D+00 0.630D+00
 Gap=     0.175 Goal=   None    Shift=    0.000
 RMSDP=7.92D-06 MaxDP=9.46D-04 DE=-1.12D-07 OVMax= 5.12D-05

 Cycle  10  Pass 1  IDiag  1:
 RMSU=  4.73D-06    CP:  9.37D-01  2.05D-01  7.90D-01  7.03D-01  7.88D-01
                    CP:  6.73D-01  7.63D-01  1.05D+00  8.09D-01
 E= -1130.31492777465     Delta-E=       -0.000000008380 Rises=F Damp=F
 DIIS: error= 1.20D-06 at cycle  10 NSaved=  10.
 NSaved=10 IEnMin=10 EnMin= -1130.31492777465     IErMin=10 ErrMin= 1.20D-06
 ErrMax= 1.20D-06  0.00D+00 EMaxC= 1.00D-01 BMatC= 1.32D-09 BMatP= 8.17D-09
 IDIUse=1 WtCom= 1.00D+00 WtEn= 0.00D+00
 Coeff-Com:  0.948D-05-0.477D-04-0.112D-03-0.132D-04 0.753D-03 0.443D-02
 Coeff-Com:  0.181D-01 0.106D+00 0.356D+00 0.515D+00
 Coeff:      0.948D-05-0.477D-04-0.112D-03-0.132D-04 0.753D-03 0.443D-02
 Coeff:      0.181D-01 0.106D+00 0.356D+00 0.515D+00
 Gap=     0.175 Goal=   None    Shift=    0.000
 RMSDP=2.15D-06 MaxDP=1.25D-04 DE=-8.38D-09 OVMax= 2.45D-05

 Cycle  11  Pass 1  IDiag  1:
 RMSU=  1.30D-06    CP:  9.37D-01  2.05D-01  7.90D-01  7.03D-01  7.88D-01
                    CP:  6.74D-01  7.65D-01  1.05D+00  8.33D-01  8.59D-01
 E= -1130.31492777596     Delta-E=       -0.000000001315 Rises=F Damp=F
 DIIS: error= 5.22D-07 at cycle  11 NSaved=  11.
 NSaved=11 IEnMin=11 EnMin= -1130.31492777596     IErMin=11 ErrMin= 5.22D-07
 ErrMax= 5.22D-07  0.00D+00 EMaxC= 1.00D-01 BMatC= 1.98D-10 BMatP= 1.32D-09
 IDIUse=1 WtCom= 1.00D+00 WtEn= 0.00D+00
 Coeff-Com:  0.490D-05-0.904D-05-0.779D-04-0.145D-03-0.608D-03-0.626D-03
 Coeff-Com:  0.155D-02 0.238D-01 0.127D+00 0.308D+00 0.542D+00
 Coeff:      0.490D-05-0.904D-05-0.779D-04-0.145D-03-0.608D-03-0.626D-03
 Coeff:      0.155D-02 0.238D-01 0.127D+00 0.308D+00 0.542D+00
 Gap=     0.175 Goal=   None    Shift=    0.000
 RMSDP=7.96D-07 MaxDP=4.78D-05 DE=-1.31D-09 OVMax= 9.81D-06

 Cycle  12  Pass 1  IDiag  1:
 RMSU=  4.30D-07    CP:  9.37D-01  2.05D-01  7.90D-01  7.03D-01  7.88D-01
                    CP:  6.74D-01  7.65D-01  1.05D+00  8.32D-01  8.51D-01
                    CP:  6.42D-01
 E= -1130.31492777596     Delta-E=       -0.000000000002 Rises=F Damp=F
 DIIS: error= 1.43D-07 at cycle  12 NSaved=  12.
 NSaved=12 IEnMin=12 EnMin= -1130.31492777596     IErMin=12 ErrMin= 1.43D-07
 ErrMax= 1.43D-07  0.00D+00 EMaxC= 1.00D-01 BMatC= 2.19D-11 BMatP= 1.98D-10
 IDIUse=1 WtCom= 1.00D+00 WtEn= 0.00D+00
 Coeff-Com:  0.161D-05 0.210D-06-0.341D-04-0.843D-04-0.444D-03-0.871D-03
 Coeff-Com: -0.109D-02 0.189D-02 0.342D-01 0.116D+00 0.317D+00 0.533D+00
 Coeff:      0.161D-05 0.210D-06-0.341D-04-0.843D-04-0.444D-03-0.871D-03
 Coeff:     -0.109D-02 0.189D-02 0.342D-01 0.116D+00 0.317D+00 0.533D+00
 Gap=     0.175 Goal=   None    Shift=    0.000
 RMSDP=3.39D-07 MaxDP=2.22D-05 DE=-1.82D-12 OVMax= 2.05D-06

 Cycle  13  Pass 1  IDiag  1:
 RMSU=  1.32D-07    CP:  9.37D-01  2.05D-01  7.90D-01  7.03D-01  7.88D-01
                    CP:  6.73D-01  7.65D-01  1.06D+00  8.35D-01  8.37D-01
                    CP:  6.80D-01  8.64D-01
 E= -1130.31492777621     Delta-E=       -0.000000000244 Rises=F Damp=F
 DIIS: error= 1.82D-08 at cycle  13 NSaved=  13.
 NSaved=13 IEnMin=13 EnMin= -1130.31492777621     IErMin=13 ErrMin= 1.82D-08
 ErrMax= 1.82D-08  0.00D+00 EMaxC= 1.00D-01 BMatC= 5.08D-13 BMatP= 2.19D-11
 IDIUse=1 WtCom= 1.00D+00 WtEn= 0.00D+00
 Coeff-Com:  0.806D-07 0.807D-06-0.649D-05-0.184D-04-0.114D-03-0.255D-03
 Coeff-Com: -0.482D-03-0.103D-02 0.362D-02 0.172D-01 0.779D-01 0.185D+00
 Coeff-Com:  0.718D+00
 Coeff:      0.806D-07 0.807D-06-0.649D-05-0.184D-04-0.114D-03-0.255D-03
 Coeff:     -0.482D-03-0.103D-02 0.362D-02 0.172D-01 0.779D-01 0.185D+00
 Coeff:      0.718D+00
 Gap=     0.175 Goal=   None    Shift=    0.000
 RMSDP=8.89D-08 MaxDP=6.66D-06 DE=-2.44D-10 OVMax= 2.36D-07

 Cycle  14  Pass 1  IDiag  1:
 RMSU=  3.34D-08    CP:  9.37D-01  2.05D-01  7.90D-01  7.03D-01  7.88D-01
                    CP:  6.73D-01  7.65D-01  1.06D+00  8.36D-01  8.41D-01
                    CP:  6.91D-01  8.35D-01  8.03D-01
 E= -1130.31492777625     Delta-E=       -0.000000000036 Rises=F Damp=F
 DIIS: error= 9.05D-09 at cycle  14 NSaved=  14.
 NSaved=14 IEnMin=14 EnMin= -1130.31492777625     IErMin=14 ErrMin= 9.05D-09
 ErrMax= 9.05D-09  0.00D+00 EMaxC= 1.00D-01 BMatC= 6.97D-14 BMatP= 5.08D-13
 IDIUse=1 WtCom= 1.00D+00 WtEn= 0.00D+00
 Coeff-Com: -0.674D-07 0.367D-06-0.135D-05-0.399D-05-0.297D-04-0.710D-04
 Coeff-Com: -0.161D-03-0.582D-03-0.969D-04 0.105D-02 0.197D-01 0.530D-01
 Coeff-Com:  0.343D+00 0.584D+00
 Coeff:     -0.674D-07 0.367D-06-0.135D-05-0.399D-05-0.297D-04-0.710D-04
 Coeff:     -0.161D-03-0.582D-03-0.969D-04 0.105D-02 0.197D-01 0.530D-01
 Coeff:      0.343D+00 0.584D+00
 Gap=     0.175 Goal=   None    Shift=    0.000
 RMSDP=1.81D-08 MaxDP=1.53D-06 DE=-3.64D-11 OVMax= 5.87D-08

 Cycle  15  Pass 1  IDiag  1:
 RMSU=  1.13D-08    CP:  9.37D-01  2.05D-01  7.90D-01  7.03D-01  7.88D-01
                    CP:  6.73D-01  7.65D-01  1.06D+00  8.37D-01  8.41D-01
                    CP:  6.91D-01  8.37D-01  8.46D-01  8.79D-01
 E= -1130.31492777610     Delta-E=        0.000000000142 Rises=F Damp=F
 DIIS: error= 2.41D-09 at cycle  15 NSaved=  15.
 NSaved=15 IEnMin=14 EnMin= -1130.31492777625     IErMin=15 ErrMin= 2.41D-09
 ErrMax= 2.41D-09  0.00D+00 EMaxC= 1.00D-01 BMatC= 5.40D-15 BMatP= 6.97D-14
 IDIUse=1 WtCom= 1.00D+00 WtEn= 0.00D+00
 Coeff-Com: -0.391D-07 0.785D-07 0.227D-07 0.106D-06-0.168D-05-0.569D-05
 Coeff-Com: -0.196D-04-0.143D-03-0.352D-03-0.151D-02 0.100D-02 0.185D-02
 Coeff-Com:  0.721D-01 0.247D+00 0.680D+00
 Coeff:     -0.391D-07 0.785D-07 0.227D-07 0.106D-06-0.168D-05-0.569D-05
 Coeff:     -0.196D-04-0.143D-03-0.352D-03-0.151D-02 0.100D-02 0.185D-02
 Coeff:      0.721D-01 0.247D+00 0.680D+00
 Gap=     0.175 Goal=   None    Shift=    0.000
 RMSDP=5.50D-09 MaxDP=3.78D-07 DE= 1.42D-10 OVMax= 1.32D-08

 SCF Done:  E(RB3LYP) =  -1130.31492778     A.U. after   15 cycles
            NFock= 15  Conv=0.55D-08     -V/T= 2.0052
 KE= 1.124415689288D+03 PE=-8.214256238524D+03 EE= 3.162349812240D+03
 Leave Link  502 at Mon Jul 28 18:42:13 2025, MaxMem=  1073741824 cpu:            2363.2 elap:             296.4
 (Enter /app/gaussian/g16/l601.exe)
 Copying SCF densities to generalized density rwf, IOpCl= 0 IROHF=0.

 **********************************************************************

            Population analysis using the SCF Density.

 **********************************************************************

 Orbital symmetries:
       Occupied  (A) (A) (A) (A) (A) (A) (A) (A) (A) (A) (A) (A)
                 (A) (A) (A) (A) (A) (A) (A) (A) (A) (A) (A) (A)
                 (A) (A) (A) (A) (A) (A) (A) (A) (A) (A) (A) (A)
                 (A) (A) (A) (A) (A) (A) (A) (A) (A) (A) (A) (A)
                 (A) (A) (A) (A) (A) (A) (A) (A) (A) (A) (A) (A)
                 (A) (A) (A) (A) (A) (A) (A) (A) (A) (A) (A) (A)
                 (A) (A) (A) (A) (A) (A) (A) (A) (A) (A) (A) (A)
                 (A) (A) (A) (A) (A) (A) (A) (A) (A) (A) (A) (A)
                 (A) (A) (A) (A) (A) (A) (A) (A) (A) (A) (A)
       Virtual   (A) (A) (A) (A) (A) (A) (A) (A) (A) (A) (A) (A)
                 (A) (A) (A) (A) (A) (A) (A) (A) (A) (A) (A) (A)
                 (A) (A) (A) (A) (A) (A) (A) (A) (A) (A) (A) (A)
                 (A) (A) (A) (A) (A) (A) (A) (A) (A) (A) (A) (A)
                 (A) (A) (A) (A) (A) (A) (A) (A) (A) (A) (A) (A)
                 (A) (A) (A) (A) (A) (A) (A) (A) (A) (A) (A) (A)
                 (A) (A) (A) (A) (A) (A) (A) (A) (A) (A) (A) (A)
                 (A) (A) (A) (A) (A) (A) (A) (A) (A) (A) (A) (A)
                 (A) (A) (A) (A) (A) (A) (A) (A) (A) (A) (A) (A)
                 (A) (A) (A) (A) (A) (A) (A) (A) (A) (A) (A) (A)
                 (A) (A) (A) (A) (A) (A) (A) (A) (A) (A) (A) (A)
                 (A) (A) (A) (A) (A) (A) (A) (A) (A) (A) (A) (A)
                 (A) (A) (A) (A) (A) (A) (A) (A) (A) (A) (A) (A)
                 (A) (A) (A) (A) (A) (A) (A) (A) (A) (A) (A) (A)
                 (A) (A) (A) (A) (A) (A) (A) (A) (A) (A) (A) (A)
                 (A) (A) (A) (A) (A) (A) (A) (A) (A) (A) (A) (A)
                 (A) (A) (A) (A) (A) (A) (A) (A) (A) (A) (A) (A)
                 (A) (A) (A) (A) (A) (A) (A) (A) (A) (A) (A) (A)
                 (A) (A) (A) (A) (A) (A) (A) (A) (A) (A) (A) (A)
                 (A) (A) (A) (A) (A) (A) (A) (A) (A) (A) (A) (A)
                 (A) (A) (A) (A) (A) (A) (A) (A) (A) (A) (A) (A)
                 (A) (A) (A) (A) (A) (A) (A) (A) (A) (A) (A) (A)
                 (A) (A) (A) (A) (A) (A) (A) (A) (A) (A) (A) (A)
                 (A) (A) (A) (A) (A) (A) (A) (A) (A) (A) (A) (A)
                 (A) (A) (A) (A) (A) (A) (A) (A) (A) (A) (A) (A)
                 (A) (A) (A) (A) (A) (A) (A) (A) (A) (A) (A) (A)
                 (A) (A) (A) (A) (A) (A) (A) (A) (A) (A) (A) (A)
                 (A) (A) (A) (A) (A) (A) (A) (A) (A) (A) (A) (A)
                 (A) (A) (A) (A) (A) (A)
 The electronic state is 1-A.
 Alpha  occ. eigenvalues --  -19.14875 -10.23841 -10.20407 -10.19537 -10.19058
 Alpha  occ. eigenvalues --  -10.18748 -10.18581 -10.18464 -10.18427 -10.18268
 Alpha  occ. eigenvalues --  -10.18225 -10.18050 -10.18009 -10.17944 -10.17877
 Alpha  occ. eigenvalues --  -10.17642 -10.17380 -10.17310 -10.17253 -10.17182
 Alpha  occ. eigenvalues --  -10.17160 -10.17105 -10.17056 -10.16901 -10.16752
 Alpha  occ. eigenvalues --  -10.16727 -10.16696 -10.16636  -1.03756  -0.87659
 Alpha  occ. eigenvalues --   -0.85705  -0.82348  -0.81120  -0.79761  -0.79296
 Alpha  occ. eigenvalues --   -0.76877  -0.75897  -0.74696  -0.73126  -0.71481
 Alpha  occ. eigenvalues --   -0.68794  -0.68603  -0.68195  -0.67655  -0.67522
 Alpha  occ. eigenvalues --   -0.64310  -0.62234  -0.61309  -0.60230  -0.58350
 Alpha  occ. eigenvalues --   -0.56988  -0.56412  -0.56115  -0.52930  -0.52616
 Alpha  occ. eigenvalues --   -0.51770  -0.49396  -0.48926  -0.48280  -0.47608
 Alpha  occ. eigenvalues --   -0.46753  -0.46196  -0.45853  -0.45765  -0.45218
 Alpha  occ. eigenvalues --   -0.43977  -0.43877  -0.43217  -0.42739  -0.42235
 Alpha  occ. eigenvalues --   -0.41427  -0.41287  -0.40377  -0.39903  -0.39620
 Alpha  occ. eigenvalues --   -0.39351  -0.39075  -0.38771  -0.38653  -0.38178
 Alpha  occ. eigenvalues --   -0.37651  -0.37127  -0.36879  -0.36564  -0.36293
 Alpha  occ. eigenvalues --   -0.36173  -0.35741  -0.35320  -0.34767  -0.34610
 Alpha  occ. eigenvalues --   -0.33573  -0.32942  -0.32656  -0.32546  -0.32184
 Alpha  occ. eigenvalues --   -0.32039  -0.32022  -0.31813  -0.31572  -0.30435
 Alpha  occ. eigenvalues --   -0.29845  -0.29572  -0.29202  -0.28822  -0.27955
 Alpha  occ. eigenvalues --   -0.26874  -0.20007
 Alpha virt. eigenvalues --   -0.02536  -0.00623  -0.00259   0.00274   0.00640
 Alpha virt. eigenvalues --    0.00867   0.01426   0.01671   0.01947   0.02397
 Alpha virt. eigenvalues --    0.02960   0.03083   0.03301   0.03824   0.04182
 Alpha virt. eigenvalues --    0.04277   0.04511   0.04858   0.05360   0.05791
 Alpha virt. eigenvalues --    0.05890   0.06271   0.06448   0.06542   0.06934
 Alpha virt. eigenvalues --    0.07397   0.07456   0.07967   0.08034   0.08200
 Alpha virt. eigenvalues --    0.08692   0.08805   0.09064   0.09148   0.09405
 Alpha virt. eigenvalues --    0.09867   0.09916   0.10419   0.10598   0.11374
 Alpha virt. eigenvalues --    0.11452   0.11476   0.11774   0.11919   0.12316
 Alpha virt. eigenvalues --    0.12389   0.12475   0.12985   0.13379   0.13491
 Alpha virt. eigenvalues --    0.13696   0.14254   0.14374   0.14581   0.14821
 Alpha virt. eigenvalues --    0.15031   0.15438   0.15584   0.15864   0.16065
 Alpha virt. eigenvalues --    0.16197   0.16355   0.16728   0.16945   0.17251
 Alpha virt. eigenvalues --    0.17415   0.17846   0.17931   0.18248   0.18291
 Alpha virt. eigenvalues --    0.18582   0.18884   0.19146   0.19309   0.19415
 Alpha virt. eigenvalues --    0.19485   0.19636   0.19883   0.19978   0.20344
 Alpha virt. eigenvalues --    0.20452   0.20621   0.20806   0.21131   0.21267
 Alpha virt. eigenvalues --    0.21412   0.21574   0.21943   0.22095   0.22188
 Alpha virt. eigenvalues --    0.22448   0.22556   0.22681   0.22914   0.23205
 Alpha virt. eigenvalues --    0.23290   0.23390   0.23603   0.24077   0.24147
 Alpha virt. eigenvalues --    0.24384   0.24652   0.25068   0.25123   0.25166
 Alpha virt. eigenvalues --    0.25350   0.25537   0.25664   0.25923   0.26137
 Alpha virt. eigenvalues --    0.26319   0.26567   0.26872   0.27028   0.27267
 Alpha virt. eigenvalues --    0.27419   0.27645   0.27847   0.28172   0.28442
 Alpha virt. eigenvalues --    0.28499   0.28824   0.29057   0.29236   0.29739
 Alpha virt. eigenvalues --    0.29966   0.30189   0.30502   0.30862   0.31123
 Alpha virt. eigenvalues --    0.31181   0.31533   0.31646   0.31816   0.32183
 Alpha virt. eigenvalues --    0.32493   0.32588   0.32966   0.33151   0.33689
 Alpha virt. eigenvalues --    0.33985   0.34289   0.34335   0.34489   0.34917
 Alpha virt. eigenvalues --    0.35197   0.35627   0.35966   0.36245   0.36497
 Alpha virt. eigenvalues --    0.36626   0.37047   0.37406   0.37665   0.38262
 Alpha virt. eigenvalues --    0.38718   0.38922   0.39387   0.39674   0.39728
 Alpha virt. eigenvalues --    0.40331   0.40589   0.40888   0.40932   0.41934
 Alpha virt. eigenvalues --    0.42121   0.42577   0.42900   0.43279   0.43578
 Alpha virt. eigenvalues --    0.43977   0.44694   0.45053   0.45860   0.46140
 Alpha virt. eigenvalues --    0.47008   0.47322   0.48162   0.48239   0.49242
 Alpha virt. eigenvalues --    0.49755   0.52605   0.52908   0.53574   0.55624
 Alpha virt. eigenvalues --    0.60045   0.64437   0.67315   0.68163   0.68918
 Alpha virt. eigenvalues --    0.68990   0.69667   0.70270   0.71024   0.71395
 Alpha virt. eigenvalues --    0.71827   0.71936   0.72644   0.72925   0.73125
 Alpha virt. eigenvalues --    0.73632   0.74375   0.74963   0.75346   0.75580
 Alpha virt. eigenvalues --    0.75928   0.76503   0.76747   0.77304   0.77640
 Alpha virt. eigenvalues --    0.77923   0.78384   0.79336   0.79899   0.80199
 Alpha virt. eigenvalues --    0.80391   0.81346   0.82191   0.82697   0.82979
 Alpha virt. eigenvalues --    0.83292   0.83791   0.84205   0.84778   0.85830
 Alpha virt. eigenvalues --    0.85998   0.86133   0.86447   0.86879   0.86979
 Alpha virt. eigenvalues --    0.87621   0.88793   0.89471   0.89974   0.90849
 Alpha virt. eigenvalues --    0.91307   0.92319   0.92829   0.94028   0.94410
 Alpha virt. eigenvalues --    0.94858   0.95411   0.96634   0.97032   0.97241
 Alpha virt. eigenvalues --    0.98328   0.98946   0.99545   1.00068   1.00745
 Alpha virt. eigenvalues --    1.01942   1.03119   1.03737   1.04266   1.04539
 Alpha virt. eigenvalues --    1.05368   1.06031   1.06757   1.07486   1.07837
 Alpha virt. eigenvalues --    1.08772   1.08898   1.09651   1.09968   1.10771
 Alpha virt. eigenvalues --    1.11553   1.11858   1.12444   1.12772   1.13544
 Alpha virt. eigenvalues --    1.14198   1.14685   1.16541   1.16720   1.17147
 Alpha virt. eigenvalues --    1.17426   1.18282   1.18860   1.19267   1.19853
 Alpha virt. eigenvalues --    1.20086   1.20545   1.21363   1.22462   1.22535
 Alpha virt. eigenvalues --    1.23118   1.23524   1.24130   1.24225   1.25019
 Alpha virt. eigenvalues --    1.25649   1.26121   1.26890   1.27697   1.27962
 Alpha virt. eigenvalues --    1.28620   1.29148   1.29833   1.31070   1.31736
 Alpha virt. eigenvalues --    1.31955   1.32230   1.33038   1.33674   1.34718
 Alpha virt. eigenvalues --    1.37281   1.38405   1.39078   1.39828   1.40238
 Alpha virt. eigenvalues --    1.41447   1.42336   1.44181   1.45598   1.46322
 Alpha virt. eigenvalues --    1.47830   1.49735   1.50275   1.51789   1.52341
 Alpha virt. eigenvalues --    1.54337   1.55617   1.56431   1.59326   1.59963
 Alpha virt. eigenvalues --    1.61985   1.63050   1.68483   1.70636   1.73462
 Alpha virt. eigenvalues --    1.76430   1.77326   1.82488   1.86519   1.92388
 Alpha virt. eigenvalues --    1.95001   2.04053   2.07186   2.10078   2.18988
 Alpha virt. eigenvalues --    2.28234   2.38924
          Condensed to atoms (all electrons):
 Mulliken charges:
               1
     1  C   -0.964195
     2  C   -0.175164
     3  C    0.550184
     4  C    0.537499
     5  C   -0.596146
     6  C   -0.427849
     7  C   -0.486631
     8  C    0.686358
     9  C   -0.268102
    10  C   -0.374584
    11  C   -0.677072
    12  C    0.079491
    13  O   -0.543724
    14  C   -0.617953
    15  C   -0.279322
    16  C   -0.570117
    17  C   -0.643900
    18  C   -0.614713
    19  C   -0.693092
    20  C    0.108221
    21  C   -0.060774
    22  C   -0.248274
    23  C    0.120236
    24  C   -0.816895
    25  C    0.139481
    26  C   -0.749339
    27  C   -0.605074
    28  C   -0.895202
    29  H    0.229523
    30  H    0.212805
    31  H    0.199968
    32  H    0.225538
    33  H    0.220791
    34  H    0.214052
    35  H    0.209540
    36  H    0.228565
    37  H    0.165257
    38  H    0.168624
    39  H    0.205365
    40  H    0.242502
    41  H    0.193061
    42  H    0.409173
    43  H    0.182925
    44  H    0.209502
    45  H    0.198340
    46  H    0.225790
    47  H    0.222402
    48  H    0.193562
    49  H    0.207117
    50  H    0.203997
    51  H    0.204114
    52  H    0.217334
    53  H    0.210460
    54  H    0.205124
    55  H    0.198963
    56  H    0.202899
    57  H    0.193545
    58  H    0.191955
    59  H    0.192669
    60  H    0.189669
    61  H    0.184522
    62  H    0.195903
    63  H    0.189022
    64  H    0.195411
    65  H    0.187074
    66  H    0.186466
    67  H    0.195623
    68  H    0.187329
    69  H    0.190492
    70  H    0.193734
    71  H    0.194048
    72  H    0.211897
 Sum of Mulliken charges =  -0.00000
 Mulliken charges with hydrogens summed into heavy atoms:
               1
     1  C   -0.321898
     2  C   -0.175164
     3  C    0.775721
     4  C    0.537499
     5  C   -0.375355
     6  C   -0.427849
     7  C    0.165525
     8  C    0.686358
     9  C   -0.102846
    10  C   -0.205960
    11  C   -0.229205
    12  C    0.272551
    13  O   -0.134551
    14  C   -0.225527
    15  C    0.144808
    16  C   -0.154153
    17  C   -0.232786
    18  C   -0.193264
    19  C   -0.277508
    20  C    0.307184
    21  C    0.142125
    22  C    0.137226
    23  C    0.502575
    24  C   -0.436471
    25  C    0.328503
    26  C   -0.180388
    27  C   -0.031630
    28  C   -0.295524
 Electronic spatial extent (au):  <R**2>=          17133.0511
 Charge=             -0.0000 electrons
 Dipole moment (field-independent basis, Debye):
    X=             -0.6793    Y=              2.3826    Z=              0.1960  Tot=              2.4853
 Quadrupole moment (field-independent basis, Debye-Ang):
   XX=           -186.4580   YY=           -183.0075   ZZ=           -180.0840
   XY=             14.7380   XZ=              1.9337   YZ=             -2.1182
 Traceless Quadrupole moment (field-independent basis, Debye-Ang):
   XX=             -3.2749   YY=              0.1757   ZZ=              3.0991
   XY=             14.7380   XZ=              1.9337   YZ=             -2.1182
 Octapole moment (field-independent basis, Debye-Ang**2):
  XXX=              3.7502  YYY=              5.0286  ZZZ=              2.7515  XYY=              7.8764
  XXY=            125.7070  XXZ=             31.0539  XZZ=             14.5968  YZZ=             -1.8883
  YYZ=              0.3402  XYZ=             -9.9989
 Hexadecapole moment (field-independent basis, Debye-Ang**3):
 XXXX=         -19896.8216 YYYY=          -2697.3691 ZZZZ=          -1704.2631 XXXY=            914.0038
 XXXZ=             87.0410 YYYX=             -8.3039 YYYZ=              2.9652 ZZZX=             -6.1153
 ZZZY=            -15.9279 XXYY=          -3832.7011 XXZZ=          -3581.3243 YYZZ=           -721.6285
 XXYZ=           -137.0815 YYXZ=             -1.0058 ZZXY=            -18.4110
 N-N= 2.797175809221D+03 E-N=-8.214256237981D+03  KE= 1.124415689288D+03
 No NMR shielding tensors so no spin-rotation constants.
 Leave Link  601 at Mon Jul 28 18:42:14 2025, MaxMem=  1073741824 cpu:               1.8 elap:               0.3
 (Enter /app/gaussian/g16/l701.exe)
 ... and contract with generalized density number  0.
 Compute integral first derivatives.
 Leave Link  701 at Mon Jul 28 18:42:14 2025, MaxMem=  1073741824 cpu:               1.9 elap:               0.3
 (Enter /app/gaussian/g16/l702.exe)
 L702 exits ... SP integral derivatives will be done elsewhere.
 Leave Link  702 at Mon Jul 28 18:42:14 2025, MaxMem=  1073741824 cpu:               0.1 elap:               0.0
 (Enter /app/gaussian/g16/l703.exe)
 Integral derivatives from FoFJK, PRISM(SPDF).
 Compute integral first derivatives, UseDBF=F ICtDFT=           0.
 Calling FoFJK, ICntrl=      2127 FMM=T ISym2X=0 I1Cent= 0 IOpClX= 0 NMat=1 NMatS=1 NMatT=0.
 FoFJK:  IHMeth= 1 ICntrl=    2127 DoSepK=F KAlg= 0 I1Cent=           0 FoldK=F
 IRaf=         0 NMat=       1 IRICut=       1 DoRegI=T DoRafI=F ISym2E= 0 IDoP0=0 IntGTp=1.
 FoFCou: FMM=T IPFlag=           0 FMFlag=      100000 FMFlg1=        2001
         NFxFlg=           0 DoJE=F BraDBF=F KetDBF=F FulRan=T
         wScrn=  0.000000 ICntrl=      2127 IOpCl=  0 I1Cent=           0 NGrid=           0
         NMat0=    1 NMatS0=      1 NMatT0=    0 NMatD0=    1 NMtDS0=    0 NMtDT0=    0
 Symmetry not used in FoFCou.
 FMM levels:  10  Number of levels for PrismC:   9
 Leave Link  703 at Mon Jul 28 18:43:04 2025, MaxMem=  1073741824 cpu:             403.3 elap:              50.6
 (Enter /app/gaussian/g16/l716.exe)
 Dipole        =-2.67257858D-01 9.37405790D-01 7.71188223D-02
 ***** Axes restored to original set *****
 -------------------------------------------------------------------
 Center     Atomic                   Forces (Hartrees/Bohr)
 Number     Number              X              Y              Z
 -------------------------------------------------------------------
      1        6          -0.001527594    0.001642050   -0.004356303
      2        6          -0.002603581   -0.009425907    0.006896044
      3        6          -0.006828938    0.005352660   -0.005493283
      4        6           0.010829298   -0.005996635   -0.005712381
      5        6          -0.000532023    0.003050148   -0.003812388
      6        6           0.004722007   -0.001311464    0.000110395
      7        6           0.005187365   -0.002416731   -0.007127002
      8        6          -0.010523254    0.000709181    0.007097982
      9        6          -0.002838106    0.004455329   -0.004208026
     10        6           0.005010390    0.007258830    0.005275753
     11        6           0.000657191    0.003919181   -0.002726904
     12        6           0.009340155    0.000894593    0.010582072
     13        8          -0.018274884   -0.002395630   -0.016021674
     14        6           0.011630237    0.000814101    0.002285851
     15        6          -0.004047512   -0.002783628    0.000219749
     16        6          -0.000483667   -0.002748695   -0.004655586
     17        6          -0.000059254   -0.001344136    0.001189313
     18        6          -0.004651246    0.012529973   -0.001771860
     19        6           0.007644559    0.006502681    0.003891305
     20        6           0.003780273   -0.005387012    0.004715893
     21        6          -0.000532230   -0.006057780    0.001756813
     22        6          -0.000280514   -0.001298262   -0.000428210
     23        6          -0.000991509   -0.004583684   -0.005210799
     24        6           0.002375875    0.004345019    0.005490920
     25        6          -0.000172083   -0.004466022   -0.006991875
     26        6           0.006823048   -0.001379765   -0.000654944
     27        6          -0.001750690    0.006663795    0.002712660
     28        6           0.000425028    0.000948202    0.004476876
     29        1          -0.002488567    0.001488632    0.002295510
     30        1           0.001697552   -0.000323296    0.001158937
     31        1           0.001806268   -0.001230973    0.000973232
     32        1           0.001811977   -0.006774518    0.002713758
     33        1          -0.004707336   -0.000761211    0.003424504
     34        1          -0.001726200    0.001696195    0.002723324
     35        1           0.000697071   -0.000866833    0.000899188
     36        1           0.000303392    0.000385704    0.000862731
     37        1          -0.002612100    0.000308601   -0.003024783
     38        1           0.003607219   -0.001920803    0.001671344
     39        1           0.002909642   -0.000265780    0.000423451
     40        1          -0.005846683   -0.005648839    0.001002496
     41        1           0.004039604    0.003734088    0.002564269
     42        1          -0.008945778   -0.002729837   -0.001916957
     43        1          -0.002730377    0.001661069    0.001480421
     44        1          -0.000114891    0.000318270    0.002185858
     45        1           0.003417603   -0.000864901   -0.000388630
     46        1           0.001364262    0.001297850   -0.001172614
     47        1          -0.002097812    0.002471885   -0.001515938
     48        1          -0.002388650    0.000214227   -0.000447369
     49        1           0.002722183    0.002161629    0.003521618
     50        1          -0.000277137   -0.002326434   -0.001135072
     51        1          -0.001003053    0.002125538   -0.001601451
     52        1          -0.003054756    0.001043117   -0.000994962
     53        1           0.003162567   -0.001916423    0.000033001
     54        1           0.002634162   -0.000450870   -0.000174597
     55        1          -0.002646294   -0.002512255   -0.001511262
     56        1          -0.002287522   -0.001851089   -0.000156416
     57        1          -0.002013983    0.001538859   -0.002761352
     58        1           0.001135785   -0.001132784    0.002762234
     59        1           0.000862911    0.001743543    0.001832859
     60        1          -0.000885736    0.003502523    0.000793971
     61        1           0.001104290   -0.002014469    0.000039205
     62        1          -0.000465454   -0.000148685   -0.002772429
     63        1           0.000624908    0.000054749    0.003461574
     64        1          -0.001164154   -0.000377364   -0.001352470
     65        1           0.000937381   -0.001908425   -0.000495803
     66        1           0.001200790    0.000545719   -0.001510402
     67        1          -0.001132634   -0.000841298   -0.001666234
     68        1           0.000735461    0.000815187   -0.001020744
     69        1          -0.001876471    0.001266605   -0.000154883
     70        1          -0.000614701    0.000947331    0.001580957
     71        1           0.001137050   -0.000665151   -0.000551106
     72        1           0.000839869    0.000720523    0.000390644
 -------------------------------------------------------------------
 Cartesian Forces:  Max     0.018274884 RMS     0.003876242
 Leave Link  716 at Mon Jul 28 18:43:05 2025, MaxMem=  1073741824 cpu:               0.2 elap:               0.0
 (Enter /app/gaussian/g16/l103.exe)

 GradGradGradGradGradGradGradGradGradGradGradGradGradGradGradGradGradGrad
 Berny optimization.
 FormGI is forming the generalized inverse of G from B-inverse, IUseBI=4.
 Internal  Forces:  Max     0.032781195 RMS     0.002964894
 Search for a local minimum.
 Step number   1 out of a maximum of  432
 All quantities printed in internal units (Hartrees-Bohrs-Radians)
 RMS Force = .29649D-02 SwitMx=.10000D-02 MixMth= 1
 Mixed Optimization -- RFO/linear search
 Second derivative matrix not updated -- first step.
 ITU=  0
     Eigenvalues ---    0.00230   0.00230   0.00230   0.00230   0.00233
     Eigenvalues ---    0.00242   0.00286   0.00306   0.00327   0.00359
     Eigenvalues ---    0.00365   0.00375   0.00418   0.00492   0.00549
     Eigenvalues ---    0.00615   0.00898   0.01009   0.01266   0.01292
     Eigenvalues ---    0.01642   0.01873   0.02026   0.02144   0.02365
     Eigenvalues ---    0.02430   0.02470   0.02592   0.02602   0.02922
     Eigenvalues ---    0.02946   0.03033   0.03384   0.03513   0.03597
     Eigenvalues ---    0.03656   0.03710   0.03839   0.03934   0.04078
     Eigenvalues ---    0.04235   0.04411   0.04470   0.04575   0.04596
     Eigenvalues ---    0.04662   0.04686   0.04755   0.04778   0.04830
     Eigenvalues ---    0.04858   0.04883   0.04963   0.05007   0.05096
     Eigenvalues ---    0.05161   0.05246   0.05251   0.05311   0.05314
     Eigenvalues ---    0.05361   0.05452   0.05480   0.05480   0.05485
     Eigenvalues ---    0.05486   0.05492   0.05555   0.05557   0.05749
     Eigenvalues ---    0.05776   0.05879   0.05951   0.06339   0.06781
     Eigenvalues ---    0.06955   0.07012   0.07213   0.07341   0.07500
     Eigenvalues ---    0.08006   0.08064   0.08076   0.08108   0.08172
     Eigenvalues ---    0.08319   0.08417   0.08693   0.09204   0.09206
     Eigenvalues ---    0.09921   0.10226   0.10751   0.11120   0.11958
     Eigenvalues ---    0.12166   0.12277   0.12840   0.12890   0.14362
     Eigenvalues ---    0.14794   0.15415   0.15798   0.15869   0.15969
     Eigenvalues ---    0.16000   0.16000   0.16000   0.16000   0.16000
     Eigenvalues ---    0.16000   0.16000   0.16000   0.16000   0.16000
     Eigenvalues ---    0.16000   0.16000   0.16000   0.16000   0.16000
     Eigenvalues ---    0.16000   0.16360   0.16896   0.17163   0.17272
     Eigenvalues ---    0.18263   0.18696   0.19106   0.19610   0.20768
     Eigenvalues ---    0.21920   0.21926   0.21930   0.21982   0.22510
     Eigenvalues ---    0.22872   0.23779   0.24788   0.25330   0.26056
     Eigenvalues ---    0.26236   0.26779   0.26884   0.27306   0.27620
     Eigenvalues ---    0.27735   0.27943   0.28019   0.28068   0.28270
     Eigenvalues ---    0.28431   0.28493   0.28500   0.28552   0.28621
     Eigenvalues ---    0.28866   0.28991   0.29354   0.29395   0.29468
     Eigenvalues ---    0.30697   0.31074   0.33164   0.33264   0.33561
     Eigenvalues ---    0.33645   0.33717   0.33823   0.33935   0.33944
     Eigenvalues ---    0.33953   0.33968   0.33970   0.33985   0.34020
     Eigenvalues ---    0.34045   0.34058   0.34065   0.34099   0.34106
     Eigenvalues ---    0.34107   0.34120   0.34156   0.34181   0.34186
     Eigenvalues ---    0.34190   0.34201   0.34204   0.34212   0.34217
     Eigenvalues ---    0.34218   0.34221   0.34231   0.34273   0.34275
     Eigenvalues ---    0.34342   0.34343   0.34406   0.34461   0.34561
     Eigenvalues ---    0.34581   0.34809   0.34822   0.35172   0.35278
     Eigenvalues ---    0.37665   0.40955   0.52831   0.53198   0.54921
 RFO step:  Lambda=-1.85136852D-02 EMin= 2.30000000D-03
 Linear search not attempted -- first point.
 Iteration  1 RMS(Cart)=  0.07569007 RMS(Int)=  0.00073718
 Iteration  2 RMS(Cart)=  0.00115801 RMS(Int)=  0.00015349
 Iteration  3 RMS(Cart)=  0.00000096 RMS(Int)=  0.00015349
 ITry= 1 IFail=0 DXMaxC= 4.29D-01 DCOld= 1.00D+10 DXMaxT= 3.00D-01 DXLimC= 3.00D+00 Rises=F
 Variable       Old X    -DE/DX   Delta X   Delta X   Delta X     New X
                                 (Linear)    (Quad)   (Total)
    R1        2.91989  -0.00015   0.00000  -0.00049  -0.00049   2.91940
    R2        2.06868   0.00089   0.00000   0.00248   0.00248   2.07116
    R3        2.06393   0.00096   0.00000   0.00263   0.00263   2.06656
    R4        2.06559   0.00125   0.00000   0.00344   0.00344   2.06903
    R5        2.92446   0.00549   0.00000   0.02077   0.02074   2.94520
    R6        2.90583   0.00105   0.00000   0.00771   0.00775   2.91359
    R7        2.94033   0.00649   0.00000   0.02174   0.02175   2.96208
    R8        2.84707   0.00184   0.00000   0.00562   0.00566   2.85273
    R9        2.89666   0.00674   0.00000   0.02145   0.02143   2.91809
   R10        2.08591   0.00280   0.00000   0.00797   0.00797   2.09388
   R11        2.90618   0.00287   0.00000   0.00221   0.00214   2.90833
   R12        2.53969   0.00742   0.00000   0.01508   0.01504   2.55473
   R13        3.00972  -0.00231   0.00000  -0.01620  -0.01616   2.99356
   R14        2.94921   0.00061   0.00000  -0.00121  -0.00124   2.94796
   R15        2.08077   0.00517   0.00000   0.01460   0.01460   2.09537
   R16        2.92721   0.00409   0.00000   0.01384   0.01384   2.94104
   R17        2.89917   0.00314   0.00000   0.00305   0.00298   2.90215
   R18        2.94860   0.00114   0.00000   0.00381   0.00376   2.95236
   R19        2.07296  -0.00028   0.00000  -0.00077  -0.00077   2.07219
   R20        2.06988   0.00084   0.00000   0.00233   0.00233   2.07220
   R21        2.07068   0.00024   0.00000   0.00065   0.00065   2.07133
   R22        2.53676   0.00770   0.00000   0.01490   0.01491   2.55167
   R23        2.84434   0.00465   0.00000   0.01368   0.01374   2.85808
   R24        2.72185   0.01520   0.00000   0.04260   0.04259   2.76444
   R25        2.05397   0.00117   0.00000   0.00315   0.00315   2.05712
   R26        2.05227   0.00080   0.00000   0.00216   0.00216   2.05443
   R27        2.90540   0.00136   0.00000   0.00267   0.00264   2.90805
   R28        2.07355  -0.00086   0.00000  -0.00239  -0.00239   2.07117
   R29        2.07384   0.00205   0.00000   0.00572   0.00572   2.07956
   R30        2.70276   0.03278   0.00000   0.07658   0.07658   2.77934
   R31        2.90492   0.00630   0.00000   0.02126   0.02126   2.92617
   R32        2.07220   0.00323   0.00000   0.00900   0.00900   2.08120
   R33        1.83812   0.00543   0.00000   0.00993   0.00993   1.84805
   R34        2.89565   0.00427   0.00000   0.01763   0.01774   2.91339
   R35        2.07163   0.00132   0.00000   0.00366   0.00366   2.07530
   R36        2.07255   0.00187   0.00000   0.00521   0.00521   2.07776
   R37        2.06942   0.00154   0.00000   0.00428   0.00428   2.07370
   R38        2.07630  -0.00002   0.00000  -0.00007  -0.00007   2.07623
   R39        2.90359   0.00734   0.00000   0.02401   0.02397   2.92757
   R40        2.06650   0.00053   0.00000   0.00146   0.00146   2.06796
   R41        2.07129   0.00122   0.00000   0.00340   0.00340   2.07469
   R42        2.07410   0.00252   0.00000   0.00703   0.00703   2.08113
   R43        2.07233   0.00214   0.00000   0.00597   0.00597   2.07829
   R44        2.91246   0.01510   0.00000   0.05073   0.05075   2.96321
   R45        2.06958   0.00086   0.00000   0.00239   0.00239   2.07198
   R46        2.07149   0.00065   0.00000   0.00180   0.00180   2.07330
   R47        2.92208   0.01290   0.00000   0.04394   0.04398   2.96606
   R48        2.05965   0.00213   0.00000   0.00581   0.00581   2.06546
   R49        2.07151   0.00027   0.00000   0.00075   0.00075   2.07226
   R50        2.92977   0.00543   0.00000   0.01841   0.01841   2.94818
   R51        2.08764   0.00017   0.00000   0.00048   0.00048   2.08812
   R52        2.91552   0.00890   0.00000   0.02953   0.02953   2.94505
   R53        2.90948   0.00601   0.00000   0.01975   0.01975   2.92923
   R54        2.07933   0.00265   0.00000   0.00747   0.00747   2.08680
   R55        2.89187   0.00842   0.00000   0.02694   0.02694   2.91881
   R56        2.06360   0.00278   0.00000   0.00762   0.00762   2.07122
   R57        2.07810   0.00210   0.00000   0.00590   0.00590   2.08400
   R58        2.90022   0.00717   0.00000   0.02324   0.02324   2.92346
   R59        2.06872   0.00244   0.00000   0.00676   0.00676   2.07548
   R60        2.05986   0.00293   0.00000   0.00798   0.00798   2.06784
   R61        2.91073   0.00531   0.00000   0.01751   0.01751   2.92824
   R62        2.07441   0.00220   0.00000   0.00616   0.00616   2.08057
   R63        2.07424   0.00245   0.00000   0.00683   0.00683   2.08107
   R64        2.89271   0.00877   0.00000   0.02812   0.02812   2.92082
   R65        2.89038   0.00827   0.00000   0.02639   0.02639   2.91677
   R66        2.07381   0.00308   0.00000   0.00860   0.00860   2.08241
   R67        2.07017   0.00179   0.00000   0.00498   0.00498   2.07514
   R68        2.06965   0.00178   0.00000   0.00494   0.00494   2.07459
   R69        2.06974   0.00162   0.00000   0.00448   0.00448   2.07422
   R70        2.06964   0.00215   0.00000   0.00596   0.00596   2.07560
   R71        2.07011   0.00138   0.00000   0.00384   0.00384   2.07395
   R72        2.06757   0.00149   0.00000   0.00412   0.00412   2.07170
   R73        2.07026   0.00166   0.00000   0.00461   0.00461   2.07487
   R74        2.06993   0.00122   0.00000   0.00337   0.00337   2.07330
   R75        2.06755   0.00102   0.00000   0.00283   0.00283   2.07038
    A1        1.96074  -0.00415   0.00000  -0.02133  -0.02136   1.93937
    A2        1.96434  -0.00076   0.00000  -0.00656  -0.00662   1.95772
    A3        1.94233  -0.00034   0.00000  -0.00148  -0.00149   1.94084
    A4        1.85120   0.00257   0.00000   0.01362   0.01353   1.86473
    A5        1.84928   0.00303   0.00000   0.02140   0.02142   1.87070
    A6        1.88950   0.00007   0.00000  -0.00306  -0.00308   1.88642
    A7        1.94664  -0.00242   0.00000  -0.02350  -0.02349   1.92315
    A8        1.92877  -0.00001   0.00000  -0.00160  -0.00169   1.92707
    A9        1.98731  -0.00014   0.00000  -0.00057  -0.00059   1.98672
   A10        1.87115   0.00028   0.00000   0.00054   0.00034   1.87150
   A11        1.72769   0.00145   0.00000   0.00850   0.00841   1.73610
   A12        1.99008   0.00083   0.00000   0.01582   0.01580   2.00588
   A13        1.98426   0.00012   0.00000   0.00616   0.00628   1.99054
   A14        1.80009   0.00331   0.00000   0.01654   0.01657   1.81666
   A15        1.88790  -0.00389   0.00000  -0.04966  -0.04968   1.83822
   A16        2.12535  -0.00366   0.00000  -0.01386  -0.01395   2.11140
   A17        1.81235   0.00234   0.00000   0.01818   0.01815   1.83050
   A18        1.84042   0.00135   0.00000   0.01532   0.01554   1.85596
   A19        2.01190   0.00049   0.00000  -0.00291  -0.00309   2.00881
   A20        2.15123   0.00170   0.00000   0.01069   0.01047   2.16170
   A21        2.11322  -0.00228   0.00000  -0.01216  -0.01246   2.10076
   A22        1.97567   0.00369   0.00000   0.00859   0.00860   1.98427
   A23        1.97143  -0.00034   0.00000  -0.00110  -0.00118   1.97025
   A24        1.81968   0.00085   0.00000   0.01891   0.01896   1.83864
   A25        1.96383  -0.00319   0.00000  -0.01319  -0.01317   1.95066
   A26        1.87464  -0.00148   0.00000  -0.01485  -0.01499   1.85965
   A27        1.84459   0.00050   0.00000   0.00298   0.00284   1.84743
   A28        1.95164  -0.00198   0.00000  -0.00640  -0.00637   1.94527
   A29        1.93247   0.00282   0.00000   0.00748   0.00738   1.93985
   A30        1.92442  -0.00073   0.00000  -0.00802  -0.00806   1.91636
   A31        1.85813   0.00038   0.00000   0.00550   0.00562   1.86375
   A32        1.88497   0.00160   0.00000   0.01511   0.01520   1.90017
   A33        1.91034  -0.00212   0.00000  -0.01330  -0.01341   1.89693
   A34        1.94831  -0.00480   0.00000  -0.02797  -0.02804   1.92027
   A35        1.94936   0.00009   0.00000   0.00214   0.00214   1.95150
   A36        1.94996  -0.00043   0.00000  -0.00297  -0.00304   1.94693
   A37        1.85185   0.00265   0.00000   0.01591   0.01591   1.86776
   A38        1.86973   0.00235   0.00000   0.01010   0.00996   1.87969
   A39        1.88982   0.00049   0.00000   0.00474   0.00474   1.89457
   A40        2.12057  -0.00276   0.00000  -0.01687  -0.01729   2.10328
   A41        2.02838   0.00023   0.00000  -0.00240  -0.00255   2.02583
   A42        2.13356   0.00257   0.00000   0.02083   0.02050   2.15406
   A43        2.12771  -0.00035   0.00000   0.00244   0.00235   2.13006
   A44        2.11541  -0.00320   0.00000  -0.01998  -0.01995   2.09546
   A45        2.03801   0.00352   0.00000   0.01747   0.01753   2.05554
   A46        2.11899  -0.00147   0.00000  -0.00009  -0.00029   2.11870
   A47        2.12435  -0.00345   0.00000  -0.02245  -0.02251   2.10184
   A48        2.02887   0.00513   0.00000   0.02622   0.02619   2.05506
   A49        1.93982   0.00307   0.00000   0.01097   0.01097   1.95079
   A50        1.94971  -0.00336   0.00000  -0.01723  -0.01745   1.93226
   A51        1.90805   0.00347   0.00000   0.02687   0.02705   1.93509
   A52        1.90021   0.00070   0.00000   0.01492   0.01517   1.91537
   A53        1.92919  -0.00630   0.00000  -0.05567  -0.05569   1.87349
   A54        1.83427   0.00218   0.00000   0.01905   0.01918   1.85345
   A55        1.88564  -0.00574   0.00000  -0.03335  -0.03255   1.85309
   A56        1.97982  -0.00345   0.00000  -0.02933  -0.02931   1.95050
   A57        1.91707   0.00027   0.00000  -0.01840  -0.01850   1.89857
   A58        1.90573   0.00859   0.00000   0.05168   0.05088   1.95661
   A59        1.86730   0.00143   0.00000   0.03287   0.03192   1.89923
   A60        1.90488  -0.00078   0.00000   0.00060  -0.00073   1.90415
   A61        1.87490   0.01442   0.00000   0.08076   0.08076   1.95566
   A62        1.94331   0.00019   0.00000   0.00430   0.00401   1.94732
   A63        1.93054  -0.00256   0.00000  -0.02559  -0.02551   1.90503
   A64        1.90931   0.00055   0.00000   0.00543   0.00541   1.91472
   A65        1.90745   0.00155   0.00000   0.01257   0.01261   1.92006
   A66        1.90229   0.00077   0.00000   0.01083   0.01086   1.91314
   A67        1.86926  -0.00047   0.00000  -0.00751  -0.00768   1.86159
   A68        1.96268   0.00235   0.00000  -0.00198  -0.00205   1.96063
   A69        1.93573  -0.00313   0.00000  -0.02082  -0.02079   1.91494
   A70        1.92555  -0.00146   0.00000  -0.01028  -0.01025   1.91530
   A71        1.90565   0.00189   0.00000   0.01972   0.01973   1.92538
   A72        1.88578  -0.00062   0.00000   0.00737   0.00732   1.89310
   A73        1.84402   0.00095   0.00000   0.00747   0.00715   1.85116
   A74        2.00613   0.00058   0.00000  -0.00026  -0.00027   2.00586
   A75        1.93626  -0.00204   0.00000  -0.01945  -0.01949   1.91677
   A76        1.91053  -0.00180   0.00000  -0.01366  -0.01366   1.89686
   A77        1.86703   0.00232   0.00000   0.02153   0.02152   1.88855
   A78        1.88875   0.00072   0.00000   0.01095   0.01093   1.89968
   A79        1.84785   0.00034   0.00000   0.00231   0.00191   1.84976
   A80        1.94183  -0.00069   0.00000  -0.00017  -0.00015   1.94168
   A81        1.92864  -0.00252   0.00000  -0.02585  -0.02584   1.90281
   A82        1.92596   0.00118   0.00000   0.00801   0.00804   1.93400
   A83        1.89802   0.00274   0.00000   0.02272   0.02273   1.92074
   A84        1.90979  -0.00084   0.00000  -0.00816  -0.00816   1.90163
   A85        1.85747   0.00019   0.00000   0.00387   0.00387   1.86134
   A86        1.82278  -0.00271   0.00000  -0.00929  -0.00933   1.81345
   A87        1.95292   0.00143   0.00000   0.00633   0.00633   1.95925
   A88        1.95058  -0.00153   0.00000  -0.02007  -0.01993   1.93065
   A89        1.94211   0.00158   0.00000   0.01614   0.01611   1.95822
   A90        1.91822   0.00279   0.00000   0.02040   0.02027   1.93849
   A91        1.87794  -0.00143   0.00000  -0.01233  -0.01258   1.86536
   A92        1.84971  -0.00026   0.00000   0.00330   0.00329   1.85301
   A93        1.91527   0.00194   0.00000   0.01773   0.01780   1.93306
   A94        1.92410   0.00091   0.00000   0.01199   0.01194   1.93604
   A95        1.98517  -0.00155   0.00000  -0.01774  -0.01783   1.96734
   A96        1.92364  -0.00006   0.00000  -0.00197  -0.00204   1.92160
   A97        1.86649  -0.00086   0.00000  -0.01199  -0.01223   1.85426
   A98        1.81681  -0.00083   0.00000  -0.00349  -0.00352   1.81329
   A99        2.11913   0.00133   0.00000   0.00498   0.00496   2.12409
   A100       1.82605  -0.00177   0.00000  -0.02513  -0.02506   1.80100
   A101       2.06267  -0.00011   0.00000   0.00398   0.00398   2.06665
   A102       1.81200   0.00160   0.00000   0.02218   0.02215   1.83415
   A103       1.78924  -0.00030   0.00000  -0.00314  -0.00328   1.78596
   A104       2.10923   0.00067   0.00000   0.00376   0.00378   2.11301
   A105       1.91704  -0.00187   0.00000  -0.00895  -0.00898   1.90806
   A106       1.83397  -0.00040   0.00000  -0.00993  -0.00993   1.82404
   A107       1.91810   0.00140   0.00000   0.00920   0.00920   1.92729
   A108       1.82283  -0.00025   0.00000   0.00173   0.00171   1.82454
   A109       1.83967   0.00045   0.00000   0.00399   0.00391   1.84359
   A110       2.05214   0.00732   0.00000   0.02967   0.02974   2.08188
   A111       1.92105  -0.00165   0.00000  -0.00416  -0.00412   1.91693
   A112       1.86697  -0.00362   0.00000  -0.02091  -0.02088   1.84609
   A113       1.91343  -0.00344   0.00000  -0.01544  -0.01546   1.89797
   A114       1.87712  -0.00128   0.00000  -0.00417  -0.00402   1.87310
   A115       1.81738   0.00218   0.00000   0.01344   0.01337   1.83075
   A116       1.93692   0.00406   0.00000   0.02108   0.02098   1.95790
   A117       1.92827  -0.00133   0.00000  -0.00850  -0.00846   1.91980
   A118       1.91481  -0.00078   0.00000   0.00241   0.00218   1.91699
   A119       1.90335  -0.00133   0.00000  -0.00738  -0.00731   1.89604
   A120       1.89619  -0.00046   0.00000   0.00591   0.00574   1.90193
   A121       1.88320  -0.00027   0.00000  -0.01433  -0.01433   1.86887
   A122       1.98018   0.00747   0.00000   0.03400   0.03399   2.01417
   A123       1.89731  -0.00207   0.00000  -0.00437  -0.00440   1.89291
   A124       1.90830  -0.00135   0.00000  -0.00141  -0.00126   1.90704
   A125       1.89710  -0.00205   0.00000  -0.00711  -0.00728   1.88982
   A126       1.91574  -0.00339   0.00000  -0.01873  -0.01884   1.89690
   A127       1.86135   0.00104   0.00000  -0.00454  -0.00469   1.85665
   A128       1.91597   0.00123   0.00000   0.01255   0.01246   1.92844
   A129       1.96371  -0.00061   0.00000   0.00099   0.00075   1.96446
   A130       1.89718  -0.00117   0.00000  -0.01986  -0.01985   1.87733
   A131       1.91426   0.00079   0.00000   0.01289   0.01279   1.92705
   A132       1.88166  -0.00039   0.00000  -0.00302  -0.00294   1.87872
   A133       1.88901   0.00011   0.00000  -0.00435  -0.00440   1.88461
   A134       1.94225  -0.00122   0.00000  -0.00920  -0.00918   1.93307
   A135       1.93437   0.00155   0.00000   0.00991   0.00986   1.94424
   A136       1.93446   0.00147   0.00000   0.00939   0.00934   1.94380
   A137       1.88603  -0.00053   0.00000  -0.00512  -0.00509   1.88094
   A138       1.88552  -0.00052   0.00000  -0.00524  -0.00521   1.88030
   A139       1.87896  -0.00084   0.00000  -0.00015  -0.00026   1.87870
   A140       1.94179  -0.00119   0.00000  -0.00912  -0.00911   1.93268
   A141       1.93307   0.00017   0.00000   0.00146   0.00141   1.93448
   A142       1.94431   0.00236   0.00000   0.01515   0.01513   1.95944
   A143       1.88404  -0.00006   0.00000  -0.00402  -0.00405   1.88000
   A144       1.88854  -0.00079   0.00000  -0.00537  -0.00533   1.88321
   A145       1.86932  -0.00056   0.00000   0.00161   0.00153   1.87084
   A146       1.93255   0.00073   0.00000   0.00526   0.00526   1.93781
   A147       1.93551  -0.00062   0.00000  -0.00327  -0.00327   1.93225
   A148       1.95511   0.00058   0.00000   0.00184   0.00184   1.95695
   A149       1.87236   0.00037   0.00000   0.00481   0.00481   1.87717
   A150       1.88021  -0.00077   0.00000  -0.00472  -0.00472   1.87548
   A151       1.88500  -0.00032   0.00000  -0.00403  -0.00404   1.88096
    D1       -0.80364   0.00096   0.00000   0.01514   0.01509  -0.78855
    D2        1.27604  -0.00027   0.00000  -0.00047  -0.00046   1.27558
    D3       -2.74082   0.00075   0.00000   0.01960   0.01956  -2.72127
    D4        1.28455   0.00079   0.00000   0.01294   0.01293   1.29749
    D5       -2.91895  -0.00044   0.00000  -0.00267  -0.00262  -2.92157
    D6       -0.65263   0.00059   0.00000   0.01740   0.01740  -0.63523
    D7       -2.87407   0.00010   0.00000   0.00320   0.00319  -2.87088
    D8       -0.79439  -0.00113   0.00000  -0.01241  -0.01236  -0.80675
    D9        1.47193  -0.00010   0.00000   0.00766   0.00766   1.47959
   D10        1.07142  -0.00077   0.00000  -0.00301  -0.00297   1.06845
   D11       -1.26484   0.00122   0.00000  -0.00305  -0.00318  -1.26802
   D12        3.07448  -0.00028   0.00000  -0.00870  -0.00856   3.06591
   D13       -1.04217   0.00052   0.00000   0.01270   0.01265  -1.02953
   D14        2.90475   0.00251   0.00000   0.01266   0.01243   2.91718
   D15        0.96088   0.00100   0.00000   0.00701   0.00705   0.96793
   D16       -3.11418  -0.00113   0.00000  -0.00869  -0.00873  -3.12291
   D17        0.83275   0.00086   0.00000  -0.00873  -0.00895   0.82380
   D18       -1.11112  -0.00065   0.00000  -0.01439  -0.01433  -1.12545
   D19       -1.07604   0.00132   0.00000   0.01188   0.01190  -1.06414
   D20        3.09687   0.00002   0.00000   0.00078   0.00080   3.09766
   D21        1.04732   0.00060   0.00000   0.00692   0.00695   1.05427
   D22        1.04880  -0.00147   0.00000  -0.01746  -0.01746   1.03134
   D23       -1.06147  -0.00278   0.00000  -0.02856  -0.02857  -1.09004
   D24       -3.11103  -0.00220   0.00000  -0.02242  -0.02241  -3.13344
   D25        2.94230   0.00081   0.00000   0.00053   0.00050   2.94280
   D26        0.83203  -0.00050   0.00000  -0.01058  -0.01060   0.82142
   D27       -1.21753   0.00009   0.00000  -0.00443  -0.00445  -1.22197
   D28        1.33531  -0.00091   0.00000  -0.01096  -0.01099   1.32432
   D29       -1.04502  -0.00113   0.00000  -0.01809  -0.01810  -1.06312
   D30       -3.05129  -0.00009   0.00000   0.00314   0.00313  -3.04816
   D31       -0.73198   0.00113   0.00000   0.01180   0.01182  -0.72017
   D32       -3.11231   0.00091   0.00000   0.00466   0.00471  -3.10761
   D33        1.16460   0.00195   0.00000   0.02590   0.02593   1.19054
   D34       -2.71261  -0.00030   0.00000   0.00067   0.00065  -2.71196
   D35        1.19024  -0.00052   0.00000  -0.00647  -0.00646   1.18378
   D36       -0.81602   0.00052   0.00000   0.01476   0.01477  -0.80126
   D37        0.87493  -0.00011   0.00000   0.00366   0.00368   0.87862
   D38       -2.39109  -0.00112   0.00000  -0.03701  -0.03721  -2.42829
   D39        3.04461   0.00154   0.00000   0.02195   0.02197   3.06657
   D40       -0.22141   0.00053   0.00000  -0.01872  -0.01892  -0.24034
   D41       -1.17249   0.00305   0.00000   0.04898   0.04909  -1.12341
   D42        1.84467   0.00203   0.00000   0.00831   0.00820   1.85287
   D43       -0.61951   0.00093   0.00000   0.01694   0.01690  -0.60260
   D44       -2.72231  -0.00006   0.00000  -0.00013  -0.00010  -2.72240
   D45        1.45344   0.00186   0.00000   0.02544   0.02545   1.47889
   D46       -2.87170   0.00043   0.00000   0.00298   0.00293  -2.86876
   D47        1.30869  -0.00056   0.00000  -0.01410  -0.01407   1.29462
   D48       -0.79875   0.00136   0.00000   0.01147   0.01148  -0.78727
   D49        1.35921  -0.00152   0.00000  -0.02544  -0.02545   1.33375
   D50       -0.74359  -0.00251   0.00000  -0.04251  -0.04246  -0.78605
   D51       -2.85103  -0.00059   0.00000  -0.01695  -0.01691  -2.86794
   D52       -2.93003   0.00044   0.00000  -0.00800  -0.00784  -2.93787
   D53       -0.67249  -0.00106   0.00000  -0.01989  -0.01978  -0.69227
   D54        1.32144  -0.00014   0.00000  -0.00594  -0.00585   1.31559
   D55        0.33303   0.00112   0.00000   0.02995   0.02974   0.36278
   D56        2.59057  -0.00037   0.00000   0.01806   0.01781   2.60838
   D57       -1.69868   0.00055   0.00000   0.03201   0.03173  -1.66695
   D58       -2.89630  -0.00062   0.00000   0.00648   0.00664  -2.88966
   D59        0.08063   0.00141   0.00000   0.03634   0.03622   0.11685
   D60        0.11388  -0.00148   0.00000  -0.03571  -0.03554   0.07834
   D61        3.09082   0.00055   0.00000  -0.00586  -0.00596   3.08485
   D62        1.47060  -0.00184   0.00000  -0.02752  -0.02754   1.44306
   D63       -0.59841  -0.00289   0.00000  -0.03523  -0.03533  -0.63375
   D64       -2.71515  -0.00161   0.00000  -0.01810  -0.01800  -2.73315
   D65       -0.79082  -0.00178   0.00000  -0.02178  -0.02169  -0.81250
   D66       -2.85982  -0.00284   0.00000  -0.02949  -0.02948  -2.88930
   D67        1.30662  -0.00155   0.00000  -0.01236  -0.01215   1.29448
   D68       -2.81360   0.00028   0.00000  -0.00904  -0.00915  -2.82275
   D69        1.40057  -0.00078   0.00000  -0.01675  -0.01694   1.38363
   D70       -0.71617   0.00051   0.00000   0.00038   0.00039  -0.71577
   D71        0.70083   0.00068   0.00000   0.02024   0.02021   0.72104
   D72       -1.41995  -0.00122   0.00000   0.00708   0.00715  -1.41280
   D73        2.83030   0.00064   0.00000   0.02389   0.02383   2.85413
   D74        2.96442   0.00270   0.00000   0.01952   0.01951   2.98393
   D75        0.84363   0.00080   0.00000   0.00636   0.00646   0.85009
   D76       -1.18929   0.00267   0.00000   0.02317   0.02313  -1.16616
   D77       -1.27800  -0.00046   0.00000  -0.00347  -0.00353  -1.28153
   D78        2.88440  -0.00235   0.00000  -0.01663  -0.01658   2.86782
   D79        0.85147  -0.00049   0.00000   0.00018   0.00010   0.85157
   D80       -2.96457  -0.00098   0.00000  -0.00286  -0.00289  -2.96746
   D81        1.24849  -0.00119   0.00000  -0.00573  -0.00572   1.24277
   D82       -0.87130  -0.00158   0.00000  -0.01125  -0.01120  -0.88250
   D83       -0.85188   0.00156   0.00000   0.00611   0.00603  -0.84585
   D84       -2.92200   0.00135   0.00000   0.00324   0.00320  -2.91880
   D85        1.24139   0.00096   0.00000  -0.00228  -0.00228   1.23911
   D86        1.19825   0.00009   0.00000   0.00105   0.00104   1.19929
   D87       -0.87187  -0.00012   0.00000  -0.00182  -0.00179  -0.87366
   D88       -2.99166  -0.00051   0.00000  -0.00734  -0.00727  -2.99893
   D89        0.50016   0.00136   0.00000   0.03583   0.03557   0.53573
   D90       -2.60278   0.00029   0.00000  -0.00912  -0.00872  -2.61151
   D91       -1.62476   0.00189   0.00000   0.03582   0.03544  -1.58932
   D92        1.55548   0.00082   0.00000  -0.00913  -0.00885   1.54664
   D93        2.62519   0.00088   0.00000   0.02182   0.02140   2.64659
   D94       -0.47775  -0.00020   0.00000  -0.02312  -0.02289  -0.50064
   D95        1.56080   0.00230   0.00000   0.00637   0.00640   1.56720
   D96       -0.57870   0.00045   0.00000  -0.00252  -0.00247  -0.58117
   D97       -2.61576   0.00207   0.00000   0.00724   0.00720  -2.60856
   D98       -2.58524   0.00044   0.00000   0.00323   0.00327  -2.58198
   D99        1.55844  -0.00141   0.00000  -0.00566  -0.00561   1.55283
   D100      -0.47862   0.00021   0.00000   0.00410   0.00406  -0.47456
   D101      -0.56907   0.00065   0.00000   0.01096   0.01101  -0.55806
   D102      -2.70857  -0.00120   0.00000   0.00208   0.00214  -2.70643
   D103       1.53755   0.00042   0.00000   0.01183   0.01181   1.54936
   D104      -0.07438  -0.00156   0.00000  -0.04172  -0.04155  -0.11592
   D105       3.13831  -0.00115   0.00000  -0.04110  -0.04097   3.09734
   D106       3.02622  -0.00049   0.00000   0.00537   0.00552   3.03174
   D107      -0.04427  -0.00008   0.00000   0.00598   0.00609  -0.03818
   D108       1.04414   0.00100   0.00000   0.02898   0.02896   1.07310
   D109      -3.11284   0.00171   0.00000   0.04382   0.04384  -3.06899
   D110      -1.09015   0.00454   0.00000   0.07356   0.07366  -1.01650
   D111      -2.05849   0.00005   0.00000  -0.01541  -0.01582  -2.07432
   D112       0.06772   0.00076   0.00000  -0.00057  -0.00094   0.06678
   D113       2.09040   0.00359   0.00000   0.02917   0.02887   2.11927
   D114      -0.27180   0.00247   0.00000   0.04389   0.04422  -0.22758
   D115       3.02589   0.00128   0.00000   0.01984   0.01971   3.04560
   D116       2.80168   0.00182   0.00000   0.04188   0.04222   2.84391
   D117      -0.18381   0.00063   0.00000   0.01782   0.01771  -0.16610
   D118      -2.60104  -0.00332   0.00000  -0.01416  -0.01434  -2.61538
   D119      -0.48580   0.00130   0.00000   0.00891   0.00882  -0.47698
   D120       1.65109  -0.00193   0.00000  -0.02460  -0.02462   1.62647
   D121       1.52735  -0.00160   0.00000  -0.01000  -0.01025   1.51711
   D122      -2.64059   0.00302   0.00000   0.01306   0.01291  -2.62767
   D123      -0.50370  -0.00022   0.00000  -0.02044  -0.02052  -0.52422
   D124      -0.47905  -0.00115   0.00000  -0.01073  -0.01087  -0.48991
   D125       1.63620   0.00347   0.00000   0.01233   0.01229   1.64849
   D126      -2.51011   0.00024   0.00000  -0.02117  -0.02114  -2.53124
   D127      -3.05318   0.00004   0.00000   0.00662   0.00653  -3.04664
   D128       1.06937   0.00256   0.00000   0.03163   0.03264   1.10201
   D129      -0.99000  -0.00187   0.00000  -0.01483  -0.01575  -1.00575
   D130      -0.51717  -0.00066   0.00000  -0.02653  -0.02633  -0.54350
   D131      -2.64171  -0.00098   0.00000  -0.02777  -0.02747  -2.66918
   D132       1.58650   0.00078   0.00000  -0.00666  -0.00643   1.58007
   D133       1.58675  -0.00415   0.00000  -0.05175  -0.05217   1.53458
   D134      -0.53779  -0.00448   0.00000  -0.05299  -0.05331  -0.59110
   D135      -2.59276  -0.00271   0.00000  -0.03187  -0.03227  -2.62503
   D136      -2.66079   0.00196   0.00000   0.01710   0.01710  -2.64369
   D137       1.49785   0.00163   0.00000   0.01586   0.01596   1.51382
   D138      -0.55712   0.00340   0.00000   0.03697   0.03701  -0.52012
   D139       1.09459   0.00150   0.00000   0.02694   0.02701   1.12160
   D140      -3.03224   0.00048   0.00000   0.01316   0.01315  -3.01909
   D141      -1.03475   0.00225   0.00000   0.03605   0.03618  -0.99857
   D142      -3.05070  -0.00055   0.00000   0.00612   0.00608  -3.04462
   D143      -0.89434  -0.00156   0.00000  -0.00765  -0.00778  -0.90212
   D144       1.10314   0.00021   0.00000   0.01524   0.01526   1.11840
   D145      -1.01321   0.00019   0.00000   0.01030   0.01032  -1.00289
   D146       1.14315  -0.00082   0.00000  -0.00348  -0.00354   1.13961
   D147       3.14064   0.00094   0.00000   0.01941   0.01950  -3.12305
   D148      -0.91937  -0.00014   0.00000  -0.00411  -0.00406  -0.92343
   D149       1.20878  -0.00189   0.00000  -0.02133  -0.02132   1.18746
   D150      -3.05211  -0.00060   0.00000  -0.00854  -0.00852  -3.06063
   D151       1.23864  -0.00063   0.00000  -0.01305  -0.01308   1.22556
   D152      -2.91639  -0.00238   0.00000  -0.03026  -0.03034  -2.94673
   D153      -0.89410  -0.00109   0.00000  -0.01747  -0.01754  -0.91164
   D154      -3.06057   0.00125   0.00000   0.00547   0.00558  -3.05500
   D155      -0.93242  -0.00050   0.00000  -0.01174  -0.01169  -0.94411
   D156       1.08987   0.00079   0.00000   0.00105   0.00111   1.09098
   D157       0.15081  -0.00080   0.00000  -0.01181  -0.01179   0.13902
   D158       2.30120  -0.00172   0.00000  -0.02100  -0.02101   2.28019
   D159      -1.93062  -0.00106   0.00000  -0.01780  -0.01778  -1.94840
   D160       2.26081   0.00011   0.00000  -0.00127  -0.00130   2.25951
   D161      -1.87198  -0.00082   0.00000  -0.01045  -0.01053  -1.88250
   D162       0.17938  -0.00016   0.00000  -0.00725  -0.00729   0.17209
   D163      -1.94400   0.00113   0.00000   0.00676   0.00689  -1.93711
   D164       0.20639   0.00020   0.00000  -0.00242  -0.00233   0.20406
   D165       2.25776   0.00086   0.00000   0.00078   0.00090   2.25865
   D166       0.36946  -0.00059   0.00000  -0.00082  -0.00081   0.36865
   D167       2.77970   0.00039   0.00000   0.00672   0.00669   2.78639
   D168      -1.53749   0.00106   0.00000   0.01994   0.02001  -1.51748
   D169      -1.73618  -0.00190   0.00000  -0.01458  -0.01450  -1.75069
   D170       0.67405  -0.00091   0.00000  -0.00704  -0.00700   0.66705
   D171       2.64005  -0.00024   0.00000   0.00618   0.00632   2.64637
   D172       2.45120   0.00031   0.00000   0.01434   0.01429   2.46549
   D173      -1.42175   0.00130   0.00000   0.02187   0.02179  -1.39996
   D174       0.54425   0.00196   0.00000   0.03509   0.03511   0.57936
   D175       1.00360   0.00069   0.00000   0.02728   0.02726   1.03086
   D176      -3.01824   0.00144   0.00000   0.03518   0.03514  -2.98311
   D177      -1.04716   0.00093   0.00000   0.03077   0.03078  -1.01639
   D178      -1.27614   0.00060   0.00000   0.02205   0.02205  -1.25409
   D179       0.98520   0.00135   0.00000   0.02995   0.02992   1.01513
   D180       2.95628   0.00084   0.00000   0.02554   0.02556   2.98185
   D181       3.02851  -0.00112   0.00000  -0.00497  -0.00494   3.02356
   D182      -0.99334  -0.00036   0.00000   0.00294   0.00293  -0.99040
   D183       0.97774  -0.00087   0.00000  -0.00147  -0.00143   0.97632
   D184       1.13560  -0.00010   0.00000   0.01351   0.01360   1.14920
   D185      -1.07166   0.00011   0.00000   0.01412   0.01412  -1.05753
   D186      -3.03569   0.00025   0.00000   0.01134   0.01128  -3.02441
   D187      -1.12528   0.00057   0.00000   0.01355   0.01361  -1.11167
   D188       2.95065   0.00079   0.00000   0.01416   0.01414   2.96478
   D189       0.98662   0.00093   0.00000   0.01137   0.01129   0.99791
   D190      -3.09123  -0.00042   0.00000   0.00415   0.00423  -3.08700
   D191       0.98470  -0.00021   0.00000   0.00476   0.00476   0.98946
   D192      -0.97933  -0.00006   0.00000   0.00198   0.00191  -0.97741
   D193       0.96256  -0.00081   0.00000  -0.01250  -0.01250   0.95006
   D194       3.03904  -0.00027   0.00000  -0.00520  -0.00520   3.03384
   D195      -1.13671  -0.00072   0.00000  -0.01137  -0.01137  -1.14808
   D196      -2.95983  -0.00029   0.00000  -0.00711  -0.00713  -2.96696
   D197      -0.88336   0.00024   0.00000   0.00020   0.00018  -0.88318
   D198       1.22408  -0.00021   0.00000  -0.00597  -0.00599   1.21809
   D199      -1.00482   0.00026   0.00000   0.00097   0.00099  -1.00383
   D200       1.07165   0.00080   0.00000   0.00827   0.00829   1.07994
   D201      -3.10409   0.00035   0.00000   0.00210   0.00212  -3.10197
   D202       3.02641  -0.00102   0.00000  -0.01664  -0.01663   3.00977
   D203       0.91292  -0.00115   0.00000  -0.01568  -0.01561   0.89731
   D204      -1.16118   0.00048   0.00000   0.00569   0.00576  -1.15542
   D205      -1.04582  -0.00039   0.00000  -0.01189  -0.01196  -1.05778
   D206       3.12389  -0.00053   0.00000  -0.01093  -0.01094   3.11294
   D207       1.04979   0.00111   0.00000   0.01044   0.01043   1.06022
   D208       0.91978  -0.00020   0.00000  -0.00591  -0.00596   0.91382
   D209      -1.19370  -0.00034   0.00000  -0.00495  -0.00494  -1.19864
   D210       3.01539   0.00130   0.00000   0.01642   0.01643   3.03182
   D211      -3.07003   0.00008   0.00000   0.00446   0.00453  -3.06550
   D212      -0.95724   0.00091   0.00000   0.01463   0.01471  -0.94253
   D213       1.06847   0.00026   0.00000   0.00601   0.00601   1.07447
   D214      -0.94194   0.00016   0.00000   0.00252   0.00254  -0.93940
   D215       1.17085   0.00098   0.00000   0.01269   0.01272   1.18356
   D216      -3.08663   0.00033   0.00000   0.00406   0.00401  -3.08262
   D217       1.10651  -0.00117   0.00000  -0.01541  -0.01544   1.09108
   D218      -3.06389  -0.00034   0.00000  -0.00524  -0.00526  -3.06915
   D219      -1.03818  -0.00099   0.00000  -0.01387  -0.01396  -1.05214
   D220       3.03802  -0.00080   0.00000  -0.01478  -0.01474   3.02328
   D221      -1.10819   0.00069   0.00000   0.01147   0.01151  -1.09668
   D222       0.98373  -0.00035   0.00000  -0.00671  -0.00660   0.97712
   D223       0.92512  -0.00161   0.00000  -0.02649  -0.02646   0.89866
   D224       3.06210  -0.00013   0.00000  -0.00024  -0.00021   3.06189
   D225      -1.12918  -0.00116   0.00000  -0.01841  -0.01832  -1.14750
   D226      -1.10457   0.00019   0.00000  -0.00661  -0.00674  -1.11131
   D227       1.03240   0.00167   0.00000   0.01965   0.01952   1.05192
   D228       3.12432   0.00064   0.00000   0.00147   0.00140   3.12572
   D229       1.08213   0.00056   0.00000   0.01392   0.01397   1.09610
   D230      -1.01714   0.00100   0.00000   0.01987   0.01996  -0.99718
   D231      -3.10238   0.00008   0.00000   0.00747   0.00749  -3.09489
   D232      -1.08392  -0.00004   0.00000  -0.00452  -0.00458  -1.08851
   D233       3.09999   0.00040   0.00000   0.00142   0.00140   3.10139
   D234       1.01476  -0.00052   0.00000  -0.01097  -0.01107   1.00369
   D235      -3.13712  -0.00038   0.00000  -0.00467  -0.00467   3.14140
   D236       1.04680   0.00006   0.00000   0.00127   0.00132   1.04811
   D237      -1.03844  -0.00086   0.00000  -0.01112  -0.01115  -1.04959
   D238      -0.97181  -0.00145   0.00000  -0.02467  -0.02466  -0.99646
   D239      -3.06739  -0.00070   0.00000  -0.01452  -0.01451  -3.08190
   D240       1.13710  -0.00165   0.00000  -0.02738  -0.02742   1.10968
   D241       1.16613   0.00028   0.00000   0.00138   0.00140   1.16754
   D242      -0.92945   0.00103   0.00000   0.01153   0.01154  -0.91790
   D243      -3.00815   0.00008   0.00000  -0.00133  -0.00136  -3.00951
   D244      -3.06845   0.00031   0.00000   0.00243   0.00245  -3.06600
   D245       1.11916   0.00107   0.00000   0.01257   0.01259   1.13175
   D246      -0.95954   0.00011   0.00000  -0.00029  -0.00032  -0.95986
         Item               Value     Threshold  Converged?
 Maximum Force            0.032781     0.000450     NO 
 RMS     Force            0.002965     0.000300     NO 
 Maximum Displacement     0.428760     0.001800     NO 
 RMS     Displacement     0.075642     0.001200     NO 
 Predicted change in Energy=-1.064300D-02
 Lowest energy point so far.  Saving SCF results.
 GradGradGradGradGradGradGradGradGradGradGradGradGradGradGradGradGradGrad

 Leave Link  103 at Mon Jul 28 18:43:05 2025, MaxMem=  1073741824 cpu:               1.3 elap:               0.2
 (Enter /app/gaussian/g16/l202.exe)
 Stoichiometry    C27H44O
 Framework group  C1[X(C27H44O)]
 Deg. of freedom   210
 Full point group                 C1      NOp   1
 RotChk:  IX=0 Diff= 1.14D-02
 Largest Abelian subgroup         C1      NOp   1
 Largest concise Abelian subgroup C1      NOp   1
                         Standard orientation:                         
 ---------------------------------------------------------------------
 Center     Atomic      Atomic             Coordinates (Angstroms)
 Number     Number       Type             X           Y           Z
 ---------------------------------------------------------------------
      1          6           0       -1.091277   -0.461337   -0.592492
      2          6           0       -0.663443    0.941044   -0.105731
      3          6           0        0.230999    0.819687    1.164812
      4          6           0        1.512518    0.052964    0.944056
      5          6           0        2.344494    0.507404   -0.268332
      6          6           0        3.516944   -0.488980   -0.645207
      7          6           0        3.001690   -1.670425   -1.517488
      8          6           0        4.144430   -1.107226    0.612796
      9          6           0        3.399740   -1.312233    1.720353
     10          6           0        2.021565   -0.833747    1.828516
     11          6           0        5.610896   -1.464673    0.517121
     12          6           0        6.483915   -0.226224    0.248404
     13          8           0        7.644461   -0.701910   -0.519715
     14          6           0        5.699498    0.876637   -0.504012
     15          6           0        4.627609    0.275209   -1.434695
     16          6           0        1.466465    0.862707   -1.507852
     17          6           0        0.173470    1.653444   -1.187036
     18          6           0       -0.755414    0.414162    2.281527
     19          6           0       -2.079441    1.165604    1.905869
     20          6           0       -1.839124    1.791714    0.486788
     21          6           0       -3.081462    2.183380   -0.371778
     22          6           0       -3.984068    1.093310   -1.024336
     23          6           0       -4.804705    0.149892   -0.117582
     24          6           0       -5.778720   -0.737811   -0.927875
     25          6           0       -6.715271   -1.638902   -0.084056
     26          6           0       -7.748447   -2.345019   -0.991210
     27          6           0       -5.939993   -2.675303    0.756883
     28          6           0       -3.946086    3.203224    0.412506
     29          1           0       -0.242588   -1.154851   -0.593656
     30          1           0       -1.860597   -0.903157    0.046926
     31          1           0       -1.479846   -0.423949   -1.615419
     32          1           0        0.554407    1.854144    1.395113
     33          1           0        2.824891    1.456509    0.044572
     34          1           0        3.783355   -2.433125   -1.616101
     35          1           0        2.741326   -1.344806   -2.531703
     36          1           0        2.123697   -2.149191   -1.068773
     37          1           0        3.841308   -1.788688    2.593863
     38          1           0        1.455955   -1.115445    2.713185
     39          1           0        5.948603   -1.964186    1.432375
     40          1           0        5.788422   -2.175581   -0.303914
     41          1           0        6.835827    0.175273    1.211666
     42          1           0        8.303317    0.005904   -0.665603
     43          1           0        6.403578    1.486047   -1.086192
     44          1           0        5.222296    1.552069    0.220540
     45          1           0        4.170879    1.062040   -2.048274
     46          1           0        5.121565   -0.409970   -2.137307
     47          1           0        1.184979   -0.052411   -2.037811
     48          1           0        2.073073    1.445964   -2.212959
     49          1           0        0.427391    2.665726   -0.835411
     50          1           0       -0.407998    1.777905   -2.112200
     51          1           0       -0.390870    0.690255    3.278054
     52          1           0       -0.906744   -0.672476    2.287485
     53          1           0       -2.932070    0.482067    1.926819
     54          1           0       -2.301543    1.955364    2.633513
     55          1           0       -1.367974    2.772169    0.681006
     56          1           0       -2.661972    2.743671   -1.225917
     57          1           0       -3.391561    0.486930   -1.718996
     58          1           0       -4.698804    1.638812   -1.662900
     59          1           0       -5.384951    0.736466    0.607333
     60          1           0       -4.130379   -0.493426    0.455845
     61          1           0       -6.402814   -0.085337   -1.557923
     62          1           0       -5.202141   -1.375178   -1.616413
     63          1           0       -7.270173   -0.985528    0.608409
     64          1           0       -7.247680   -3.012351   -1.705188
     65          1           0       -8.337671   -1.619577   -1.567208
     66          1           0       -8.449625   -2.950673   -0.402712
     67          1           0       -5.308611   -3.303582    0.114221
     68          1           0       -6.630830   -3.336546    1.295383
     69          1           0       -5.293685   -2.202820    1.505823
     70          1           0       -3.347341    4.068507    0.726091
     71          1           0       -4.766715    3.577559   -0.212128
     72          1           0       -4.386062    2.763722    1.314500
 ---------------------------------------------------------------------
 Rotational constants (GHZ):           0.3928036           0.0662161           0.0636566
 Leave Link  202 at Mon Jul 28 18:43:05 2025, MaxMem=  1073741824 cpu:               0.1 elap:               0.0
 (Enter /app/gaussian/g16/l301.exe)
 Standard basis: 6-31+G (6D, 7F)
 Ernie: Thresh=  0.10000D-02 Tol=  0.10000D-05 Strict=F.
 There are   452 symmetry adapted cartesian basis functions of A   symmetry.
 There are   452 symmetry adapted basis functions of A   symmetry.
   452 basis functions,   904 primitive gaussians,   452 cartesian basis functions
   107 alpha electrons      107 beta electrons
       nuclear repulsion energy      2774.4214338086 Hartrees.
 IExCor=  402 DFT=T Ex+Corr=B3LYP ExCW=0 ScaHFX=  0.200000
 ScaDFX=  0.800000  0.720000  1.000000  0.810000 ScalE2=  1.000000  1.000000
 IRadAn=      5 IRanWt=     -1 IRanGd=            0 ICorTp=0 IEmpDi=  4
 NAtoms=   72 NActive=   72 NUniq=   72 SFac= 1.00D+00 NAtFMM=   60 NAOKFM=T Big=T
 Integral buffers will be    131072 words long.
 Raffenetti 2 integral format.
 Two-electron integral symmetry is turned on.
 Leave Link  301 at Mon Jul 28 18:43:05 2025, MaxMem=  1073741824 cpu:               0.4 elap:               0.1
 (Enter /app/gaussian/g16/l302.exe)
 NPDir=0 NMtPBC=     1 NCelOv=     1 NCel=       1 NClECP=     1 NCelD=      1
         NCelK=      1 NCelE2=     1 NClLst=     1 CellRange=     0.0.
 One-electron integrals computed using PRISM.
 One-electron integral symmetry used in STVInt
 NBasis=   452 RedAO= T EigKep=  1.26D-06  NBF=   452
 NBsUse=   449 1.00D-06 EigRej=  8.28D-07 NBFU=   449
 Precomputing XC quadrature grid using
 IXCGrd= 4 IRadAn=           5 IRanWt=          -1 IRanGd=           0 AccXCQ= 0.00D+00.
 Generated NRdTot=       0 NPtTot=           0 NUsed=           0 NTot=          32
 NSgBfM=   441   438   438   438   441 MxSgAt=    72 MxSgA2=    72.
 Leave Link  302 at Mon Jul 28 18:43:06 2025, MaxMem=  1073741824 cpu:              10.5 elap:               1.3
 (Enter /app/gaussian/g16/l303.exe)
 DipDrv:  MaxL=1.
 Leave Link  303 at Mon Jul 28 18:43:06 2025, MaxMem=  1073741824 cpu:               0.4 elap:               0.1
 (Enter /app/gaussian/g16/l401.exe)
 Initial guess from the checkpoint file:  "/work/scr/Gau-256556.chk"
 B after Tr=     0.000000    0.000000    0.000000
         Rot=    0.999995    0.001966   -0.000741    0.002531 Ang=   0.38 deg.
 Guess basis will be translated and rotated to current coordinates.
 JPrj=2 DoOrth=T DoCkMO=T.
 Generating alternative initial guess.
 ExpMin= 4.38D-02 ExpMax= 5.48D+03 ExpMxC= 8.25D+02 IAcc=3 IRadAn=         5 AccDes= 0.00D+00
 Harris functional with IExCor=  402 and IRadAn=       5 diagonalized for initial guess.
 HarFok:  IExCor=  402 AccDes= 0.00D+00 IRadAn=         5 IDoV= 1 UseB2=F ITyADJ=14
 ICtDFT=  3500011 ScaDFX=  1.000000  1.000000  1.000000  1.000000
 FoFCou: FMM=F IPFlag=           0 FMFlag=      100000 FMFlg1=        2001
         NFxFlg=           0 DoJE=T BraDBF=F KetDBF=T FulRan=T
         wScrn=  0.000000 ICntrl=       500 IOpCl=  0 I1Cent=   200000004 NGrid=           0
         NMat0=    1 NMatS0=      1 NMatT0=    0 NMatD0=    1 NMtDS0=    0 NMtDT0=    0
 Petite list used in FoFCou.
 Harris En= -1130.39948503880    
 Leave Link  401 at Mon Jul 28 18:43:16 2025, MaxMem=  1073741824 cpu:              75.5 elap:               9.5
 (Enter /app/gaussian/g16/l502.exe)
 Integral symmetry usage will be decided dynamically.
 Closed shell SCF:
 Using DIIS extrapolation, IDIIS=  1040.
 NGot=  1073741824 LenX=  1073322182 LenY=  1073117426
 Requested convergence on RMS density matrix=1.00D-08 within 128 cycles.
 Requested convergence on MAX density matrix=1.00D-06.
 Requested convergence on             energy=1.00D-06.
 No special actions if energy rises.
 Fock matrices will be formed incrementally for  20 cycles.

 Cycle   1  Pass 1  IDiag  1:
 FoFJK:  IHMeth= 1 ICntrl=       0 DoSepK=F KAlg= 0 I1Cent=           0 FoldK=F
 IRaf= 990000000 NMat=       1 IRICut=       1 DoRegI=T DoRafI=F ISym2E= 0 IDoP0=0 IntGTp=1.
 FoFCou: FMM=T IPFlag=           0 FMFlag=      100000 FMFlg1=        2001
         NFxFlg=           0 DoJE=F BraDBF=F KetDBF=F FulRan=T
         wScrn=  0.000000 ICntrl=         0 IOpCl=  0 I1Cent=           0 NGrid=           0
         NMat0=    1 NMatS0=      1 NMatT0=    0 NMatD0=    1 NMtDS0=    0 NMtDT0=    0
 Symmetry not used in FoFCou.
 FMM levels:  10  Number of levels for PrismC:   9
 E= -1130.30701477694    
 DIIS: error= 7.55D-03 at cycle   1 NSaved=   1.
 NSaved= 1 IEnMin= 1 EnMin= -1130.30701477694     IErMin= 1 ErrMin= 7.55D-03
 ErrMax= 7.55D-03  0.00D+00 EMaxC= 1.00D-01 BMatC= 2.21D-02 BMatP= 2.21D-02
 IDIUse=3 WtCom= 9.25D-01 WtEn= 7.55D-02
 Coeff-Com:  0.100D+01
 Coeff-En:   0.100D+01
 Coeff:      0.100D+01
 Gap=     0.457 Goal=   None    Shift=    0.000
 GapD=    0.457 DampG=2.000 DampE=1.000 DampFc=2.0000 IDamp=-1.
 RMSDP=9.81D-03 MaxDP=7.97D-01              OVMax= 1.85D-02

 Cycle   2  Pass 1  IDiag  1:
 RMSU=  8.52D-03    CP:  9.53D-01
 E= -1130.32361995478     Delta-E=       -0.016605177841 Rises=F Damp=F
 DIIS: error= 2.49D-04 at cycle   2 NSaved=   2.
 NSaved= 2 IEnMin= 2 EnMin= -1130.32361995478     IErMin= 2 ErrMin= 2.49D-04
 ErrMax= 2.49D-04  0.00D+00 EMaxC= 1.00D-01 BMatC= 1.19D-04 BMatP= 2.21D-02
 IDIUse=3 WtCom= 9.98D-01 WtEn= 2.49D-03
 Coeff-Com: -0.865D-02 0.101D+01
 Coeff-En:   0.000D+00 0.100D+01
 Coeff:     -0.863D-02 0.101D+01
 Gap=     0.174 Goal=   None    Shift=    0.000
 RMSDP=1.02D-03 MaxDP=7.00D-02 DE=-1.66D-02 OVMax= 4.44D-03

 Cycle   3  Pass 1  IDiag  1:
 RMSU=  8.92D-04    CP:  9.49D-01  1.03D+00
 E= -1130.32360821463     Delta-E=        0.000011740152 Rises=F Damp=F
 DIIS: error= 4.40D-04 at cycle   3 NSaved=   3.
 NSaved= 3 IEnMin= 2 EnMin= -1130.32361995478     IErMin= 2 ErrMin= 2.49D-04
 ErrMax= 4.40D-04  0.00D+00 EMaxC= 1.00D-01 BMatC= 1.80D-04 BMatP= 1.19D-04
 IDIUse=3 WtCom= 3.23D-01 WtEn= 6.77D-01
 Coeff-Com: -0.956D-02 0.565D+00 0.444D+00
 Coeff-En:   0.000D+00 0.519D+00 0.481D+00
 Coeff:     -0.308D-02 0.534D+00 0.469D+00
 Gap=     0.174 Goal=   None    Shift=    0.000
 RMSDP=5.34D-04 MaxDP=3.04D-02 DE= 1.17D-05 OVMax= 4.08D-03

 Cycle   4  Pass 1  IDiag  1:
 RMSU=  3.67D-04    CP:  9.51D-01  1.03D+00  6.42D-01
 E= -1130.32378342587     Delta-E=       -0.000175211248 Rises=F Damp=F
 DIIS: error= 1.93D-04 at cycle   4 NSaved=   4.
 NSaved= 4 IEnMin= 4 EnMin= -1130.32378342587     IErMin= 4 ErrMin= 1.93D-04
 ErrMax= 1.93D-04  0.00D+00 EMaxC= 1.00D-01 BMatC= 1.37D-05 BMatP= 1.19D-04
 IDIUse=3 WtCom= 9.98D-01 WtEn= 1.93D-03
 Coeff-Com: -0.359D-02 0.166D+00 0.248D+00 0.589D+00
 Coeff-En:   0.000D+00 0.000D+00 0.000D+00 0.100D+01
 Coeff:     -0.358D-02 0.165D+00 0.248D+00 0.590D+00
 Gap=     0.174 Goal=   None    Shift=    0.000
 RMSDP=1.47D-04 MaxDP=1.22D-02 DE=-1.75D-04 OVMax= 1.77D-03

 Cycle   5  Pass 1  IDiag  1:
 RMSU=  9.76D-05    CP:  9.51D-01  1.03D+00  6.47D-01  7.79D-01
 E= -1130.32379484323     Delta-E=       -0.000011417359 Rises=F Damp=F
 DIIS: error= 8.37D-05 at cycle   5 NSaved=   5.
 NSaved= 5 IEnMin= 5 EnMin= -1130.32379484323     IErMin= 5 ErrMin= 8.37D-05
 ErrMax= 8.37D-05  0.00D+00 EMaxC= 1.00D-01 BMatC= 2.85D-06 BMatP= 1.37D-05
 IDIUse=1 WtCom= 1.00D+00 WtEn= 0.00D+00
 Coeff-Com: -0.569D-03 0.299D-02 0.801D-01 0.385D+00 0.532D+00
 Coeff:     -0.569D-03 0.299D-02 0.801D-01 0.385D+00 0.532D+00
 Gap=     0.174 Goal=   None    Shift=    0.000
 RMSDP=6.18D-05 MaxDP=4.18D-03 DE=-1.14D-05 OVMax= 6.31D-04

 Cycle   6  Pass 1  IDiag  1:
 RMSU=  4.26D-05    CP:  9.51D-01  1.03D+00  6.55D-01  7.36D-01  6.12D-01
 E= -1130.32379786261     Delta-E=       -0.000003019376 Rises=F Damp=F
 DIIS: error= 1.00D-05 at cycle   6 NSaved=   6.
 NSaved= 6 IEnMin= 6 EnMin= -1130.32379786261     IErMin= 6 ErrMin= 1.00D-05
 ErrMax= 1.00D-05  0.00D+00 EMaxC= 1.00D-01 BMatC= 6.85D-08 BMatP= 2.85D-06
 IDIUse=1 WtCom= 1.00D+00 WtEn= 0.00D+00
 Coeff-Com: -0.518D-04-0.817D-02 0.211D-01 0.133D+00 0.232D+00 0.622D+00
 Coeff:     -0.518D-04-0.817D-02 0.211D-01 0.133D+00 0.232D+00 0.622D+00
 Gap=     0.174 Goal=   None    Shift=    0.000
 RMSDP=2.36D-05 MaxDP=1.12D-03 DE=-3.02D-06 OVMax= 8.11D-05

 Cycle   7  Pass 1  IDiag  1:
 RMSU=  8.82D-06    CP:  9.51D-01  1.03D+00  6.59D-01  7.77D-01  6.60D-01
                    CP:  6.83D-01
 E= -1130.32379792830     Delta-E=       -0.000000065696 Rises=F Damp=F
 DIIS: error= 4.11D-06 at cycle   7 NSaved=   7.
 NSaved= 7 IEnMin= 7 EnMin= -1130.32379792830     IErMin= 7 ErrMin= 4.11D-06
 ErrMax= 4.11D-06  0.00D+00 EMaxC= 1.00D-01 BMatC= 1.51D-08 BMatP= 6.85D-08
 IDIUse=1 WtCom= 1.00D+00 WtEn= 0.00D+00
 Coeff-Com:  0.335D-04-0.558D-02 0.441D-02 0.410D-01 0.856D-01 0.367D+00
 Coeff-Com:  0.508D+00
 Coeff:      0.335D-04-0.558D-02 0.441D-02 0.410D-01 0.856D-01 0.367D+00
 Coeff:      0.508D+00
 Gap=     0.174 Goal=   None    Shift=    0.000
 RMSDP=5.01D-06 MaxDP=3.52D-04 DE=-6.57D-08 OVMax= 2.28D-05

 Cycle   8  Pass 1  IDiag  1:
 RMSU=  2.41D-06    CP:  9.51D-01  1.03D+00  6.61D-01  7.74D-01  6.45D-01
                    CP:  7.08D-01  7.40D-01
 E= -1130.32379794219     Delta-E=       -0.000000013886 Rises=F Damp=F
 DIIS: error= 9.05D-07 at cycle   8 NSaved=   8.
 NSaved= 8 IEnMin= 8 EnMin= -1130.32379794219     IErMin= 8 ErrMin= 9.05D-07
 ErrMax= 9.05D-07  0.00D+00 EMaxC= 1.00D-01 BMatC= 4.09D-10 BMatP= 1.51D-08
 IDIUse=1 WtCom= 1.00D+00 WtEn= 0.00D+00
 Coeff-Com:  0.167D-04-0.210D-02 0.992D-03 0.122D-01 0.275D-01 0.135D+00
 Coeff-Com:  0.232D+00 0.594D+00
 Coeff:      0.167D-04-0.210D-02 0.992D-03 0.122D-01 0.275D-01 0.135D+00
 Coeff:      0.232D+00 0.594D+00
 Gap=     0.174 Goal=   None    Shift=    0.000
 RMSDP=1.11D-06 MaxDP=8.94D-05 DE=-1.39D-08 OVMax= 7.17D-06

 Cycle   9  Pass 1  IDiag  1:
 RMSU=  7.00D-07    CP:  9.51D-01  1.03D+00  6.61D-01  7.73D-01  6.45D-01
                    CP:  7.16D-01  6.90D-01  9.32D-01
 E= -1130.32379794239     Delta-E=       -0.000000000200 Rises=F Damp=F
 DIIS: error= 3.03D-07 at cycle   9 NSaved=   9.
 NSaved= 9 IEnMin= 9 EnMin= -1130.32379794239     IErMin= 9 ErrMin= 3.03D-07
 ErrMax= 3.03D-07  0.00D+00 EMaxC= 1.00D-01 BMatC= 9.18D-11 BMatP= 4.09D-10
 IDIUse=1 WtCom= 1.00D+00 WtEn= 0.00D+00
 Coeff-Com:  0.425D-05-0.291D-03-0.174D-03 0.266D-03 0.160D-02 0.168D-01
 Coeff-Com:  0.497D-01 0.344D+00 0.588D+00
 Coeff:      0.425D-05-0.291D-03-0.174D-03 0.266D-03 0.160D-02 0.168D-01
 Coeff:      0.497D-01 0.344D+00 0.588D+00
 Gap=     0.174 Goal=   None    Shift=    0.000
 RMSDP=4.48D-07 MaxDP=2.97D-05 DE=-2.00D-10 OVMax= 4.60D-06

 Cycle  10  Pass 1  IDiag  1:
 RMSU=  3.14D-07    CP:  9.51D-01  1.03D+00  6.61D-01  7.73D-01  6.46D-01
                    CP:  7.17D-01  6.95D-01  8.87D-01  8.85D-01
 E= -1130.32379794248     Delta-E=       -0.000000000094 Rises=F Damp=F
 DIIS: error= 1.10D-07 at cycle  10 NSaved=  10.
 NSaved=10 IEnMin=10 EnMin= -1130.32379794248     IErMin=10 ErrMin= 1.10D-07
 ErrMax= 1.10D-07  0.00D+00 EMaxC= 1.00D-01 BMatC= 7.80D-12 BMatP= 9.18D-11
 IDIUse=1 WtCom= 1.00D+00 WtEn= 0.00D+00
 Coeff-Com:  0.677D-06 0.436D-04-0.184D-03-0.100D-02-0.174D-02-0.395D-02
 Coeff-Com:  0.440D-02 0.126D+00 0.307D+00 0.569D+00
 Coeff:      0.677D-06 0.436D-04-0.184D-03-0.100D-02-0.174D-02-0.395D-02
 Coeff:      0.440D-02 0.126D+00 0.307D+00 0.569D+00
 Gap=     0.174 Goal=   None    Shift=    0.000
 RMSDP=2.03D-07 MaxDP=1.48D-05 DE=-9.41D-11 OVMax= 2.08D-06

 Cycle  11  Pass 1  IDiag  1:
 RMSU=  1.14D-07    CP:  9.51D-01  1.03D+00  6.61D-01  7.73D-01  6.46D-01
                    CP:  7.16D-01  7.02D-01  9.07D-01  8.99D-01  6.81D-01
 E= -1130.32379794245     Delta-E=        0.000000000028 Rises=F Damp=F
 DIIS: error= 6.16D-08 at cycle  11 NSaved=  11.
 NSaved=11 IEnMin=10 EnMin= -1130.32379794248     IErMin=11 ErrMin= 6.16D-08
 ErrMax= 6.16D-08  0.00D+00 EMaxC= 1.00D-01 BMatC= 1.85D-12 BMatP= 7.80D-12
 IDIUse=1 WtCom= 1.00D+00 WtEn= 0.00D+00
 Coeff-Com: -0.218D-06 0.697D-04-0.857D-04-0.652D-03-0.129D-02-0.479D-02
 Coeff-Com: -0.443D-02 0.291D-01 0.107D+00 0.365D+00 0.510D+00
 Coeff:     -0.218D-06 0.697D-04-0.857D-04-0.652D-03-0.129D-02-0.479D-02
 Coeff:     -0.443D-02 0.291D-01 0.107D+00 0.365D+00 0.510D+00
 Gap=     0.174 Goal=   None    Shift=    0.000
 RMSDP=6.29D-08 MaxDP=3.50D-06 DE= 2.77D-11 OVMax= 9.05D-07

 Cycle  12  Pass 1  IDiag  1:
 RMSU=  3.29D-08    CP:  9.51D-01  1.03D+00  6.61D-01  7.73D-01  6.46D-01
                    CP:  7.16D-01  7.03D-01  9.15D-01  8.72D-01  6.97D-01
                    CP:  7.26D-01
 E= -1130.32379794248     Delta-E=       -0.000000000028 Rises=F Damp=F
 DIIS: error= 1.08D-08 at cycle  12 NSaved=  12.
 NSaved=12 IEnMin=12 EnMin= -1130.32379794248     IErMin=12 ErrMin= 1.08D-08
 ErrMax= 1.08D-08  0.00D+00 EMaxC= 1.00D-01 BMatC= 9.93D-14 BMatP= 1.85D-12
 IDIUse=1 WtCom= 1.00D+00 WtEn= 0.00D+00
 Coeff-Com: -0.158D-06 0.288D-04-0.224D-04-0.212D-03-0.446D-03-0.192D-02
 Coeff-Com: -0.264D-02 0.168D-02 0.208D-01 0.118D+00 0.258D+00 0.607D+00
 Coeff:     -0.158D-06 0.288D-04-0.224D-04-0.212D-03-0.446D-03-0.192D-02
 Coeff:     -0.264D-02 0.168D-02 0.208D-01 0.118D+00 0.258D+00 0.607D+00
 Gap=     0.174 Goal=   None    Shift=    0.000
 RMSDP=1.83D-08 MaxDP=1.28D-06 DE=-2.82D-11 OVMax= 1.27D-07

 Cycle  13  Pass 1  IDiag  1:
 RMSU=  9.27D-09    CP:  9.51D-01  1.03D+00  6.61D-01  7.73D-01  6.46D-01
                    CP:  7.16D-01  7.03D-01  9.15D-01  8.80D-01  7.08D-01
                    CP:  7.00D-01  6.97D-01
 E= -1130.32379794237     Delta-E=        0.000000000116 Rises=F Damp=F
 DIIS: error= 1.77D-09 at cycle  13 NSaved=  13.
 NSaved=13 IEnMin=12 EnMin= -1130.32379794248     IErMin=13 ErrMin= 1.77D-09
 ErrMax= 1.77D-09  0.00D+00 EMaxC= 1.00D-01 BMatC= 5.70D-15 BMatP= 9.93D-14
 IDIUse=1 WtCom= 1.00D+00 WtEn= 0.00D+00
 Coeff-Com: -0.566D-07 0.764D-05-0.311D-05-0.440D-04-0.101D-03-0.484D-03
 Coeff-Com: -0.851D-03-0.162D-02 0.700D-03 0.227D-01 0.778D-01 0.264D+00
 Coeff-Com:  0.638D+00
 Coeff:     -0.566D-07 0.764D-05-0.311D-05-0.440D-04-0.101D-03-0.484D-03
 Coeff:     -0.851D-03-0.162D-02 0.700D-03 0.227D-01 0.778D-01 0.264D+00
 Coeff:      0.638D+00
 Gap=     0.174 Goal=   None    Shift=    0.000
 RMSDP=5.28D-09 MaxDP=3.81D-07 DE= 1.16D-10 OVMax= 1.66D-08

 SCF Done:  E(RB3LYP) =  -1130.32379794     A.U. after   13 cycles
            NFock= 13  Conv=0.53D-08     -V/T= 2.0059
 KE= 1.123659053943D+03 PE=-8.168200951521D+03 EE= 3.139796665827D+03
 Leave Link  502 at Mon Jul 28 18:47:27 2025, MaxMem=  1073741824 cpu:            2003.8 elap:             251.3
 (Enter /app/gaussian/g16/l701.exe)
 ... and contract with generalized density number  0.
 Compute integral first derivatives.
 Leave Link  701 at Mon Jul 28 18:47:27 2025, MaxMem=  1073741824 cpu:               1.9 elap:               0.3
 (Enter /app/gaussian/g16/l702.exe)
 L702 exits ... SP integral derivatives will be done elsewhere.
 Leave Link  702 at Mon Jul 28 18:47:27 2025, MaxMem=  1073741824 cpu:               0.1 elap:               0.0
 (Enter /app/gaussian/g16/l703.exe)
 Integral derivatives from FoFJK, PRISM(SPDF).
 Compute integral first derivatives, UseDBF=F ICtDFT=           0.
 Calling FoFJK, ICntrl=      2127 FMM=T ISym2X=0 I1Cent= 0 IOpClX= 0 NMat=1 NMatS=1 NMatT=0.
 FoFJK:  IHMeth= 1 ICntrl=    2127 DoSepK=F KAlg= 0 I1Cent=           0 FoldK=F
 IRaf=         0 NMat=       1 IRICut=       1 DoRegI=T DoRafI=F ISym2E= 0 IDoP0=0 IntGTp=1.
 FoFCou: FMM=T IPFlag=           0 FMFlag=      100000 FMFlg1=        2001
         NFxFlg=           0 DoJE=F BraDBF=F KetDBF=F FulRan=T
         wScrn=  0.000000 ICntrl=      2127 IOpCl=  0 I1Cent=           0 NGrid=           0
         NMat0=    1 NMatS0=      1 NMatT0=    0 NMatD0=    1 NMtDS0=    0 NMtDT0=    0
 Symmetry not used in FoFCou.
 FMM levels:  10  Number of levels for PrismC:   9
 Leave Link  703 at Mon Jul 28 18:48:17 2025, MaxMem=  1073741824 cpu:             396.9 elap:              49.8
 (Enter /app/gaussian/g16/l716.exe)
 Dipole        =-2.25157137D-01 9.36850136D-01 5.97577403D-02
 ***** Axes restored to original set *****
 -------------------------------------------------------------------
 Center     Atomic                   Forces (Hartrees/Bohr)
 Number     Number              X              Y              Z
 -------------------------------------------------------------------
      1        6           0.000369456    0.000172561   -0.002850767
      2        6           0.000527987   -0.002634871    0.000619368
      3        6          -0.002604008    0.002525819   -0.000081330
      4        6           0.002645690   -0.001825086   -0.002781432
      5        6          -0.001151519    0.001563119    0.000553993
      6        6           0.002850015   -0.000421166    0.000056926
      7        6           0.000223687   -0.000171194   -0.003283955
      8        6          -0.002580836    0.000589043    0.003216022
      9        6           0.000614072   -0.000233123   -0.000395584
     10        6          -0.001910580    0.001155205    0.001566515
     11        6           0.001784399    0.002994193   -0.004046641
     12        6           0.002555031    0.000137747    0.007971639
     13        8           0.000804082   -0.000086237   -0.003108975
     14        6           0.000519557   -0.001842248   -0.002888340
     15        6          -0.002917677   -0.001745671    0.000279794
     16        6           0.001163284   -0.001691170    0.000649734
     17        6          -0.000775974   -0.000116100   -0.000008819
     18        6          -0.000004562   -0.000422628    0.000403903
     19        6          -0.000411640    0.001624126    0.000023608
     20        6          -0.000839757    0.000741730    0.001415494
     21        6           0.000181644   -0.000245215    0.000219607
     22        6           0.000871469   -0.000977575   -0.001140151
     23        6           0.000473963   -0.000657127   -0.001470367
     24        6          -0.000519812    0.000089924    0.001684604
     25        6           0.000130129   -0.000186352   -0.000722167
     26        6          -0.000031322   -0.000111835    0.000763731
     27        6           0.000280870    0.000711205    0.000481111
     28        6          -0.000175330   -0.000009846    0.000592575
     29        1           0.000182028    0.000101041    0.000713893
     30        1           0.000765368   -0.000302421    0.000416605
     31        1           0.000816351   -0.000185923    0.000054544
     32        1           0.000413565   -0.001083478    0.000331335
     33        1          -0.000242781    0.000772765    0.000403423
     34        1          -0.000212134    0.000269801    0.000574016
     35        1          -0.000343484    0.000566792    0.000315341
     36        1          -0.000367337    0.000165739    0.000747101
     37        1           0.000168857    0.000065447   -0.001126875
     38        1           0.000010706   -0.000416911    0.000301117
     39        1           0.000584301   -0.000162886   -0.000439923
     40        1          -0.000196354   -0.001754265    0.000913945
     41        1          -0.001777123   -0.001651328   -0.000524404
     42        1           0.000834435    0.000617495    0.001185090
     43        1          -0.000383044   -0.000002460    0.000950414
     44        1          -0.000788912    0.001232325   -0.000805940
     45        1          -0.000492087    0.000457238    0.000040074
     46        1           0.000139820    0.000640974   -0.000020010
     47        1           0.000888054    0.000714505    0.000973667
     48        1           0.000478964   -0.000086995   -0.000121039
     49        1          -0.000095988    0.000510094    0.000087764
     50        1          -0.000295122    0.000001508   -0.000265719
     51        1           0.000045552   -0.000497627    0.000080976
     52        1           0.000333835   -0.000382019   -0.000137528
     53        1           0.000170045   -0.001162328   -0.001053982
     54        1           0.000070391    0.000044388   -0.000191310
     55        1          -0.000141948    0.000330594    0.000041175
     56        1           0.000267204    0.000054770   -0.001169864
     57        1          -0.001010264    0.001038399   -0.000201099
     58        1           0.000023354    0.000196797    0.000548522
     59        1           0.000154714    0.000783838    0.000800763
     60        1          -0.000401267    0.001207170    0.000309446
     61        1          -0.000016041   -0.000292135   -0.000166344
     62        1          -0.000367195   -0.000306360   -0.000485260
     63        1           0.000203460    0.000321729    0.000552665
     64        1          -0.000363579   -0.000043136   -0.000289553
     65        1          -0.000560765    0.000071069    0.000223491
     66        1          -0.000602120    0.000340652    0.000261218
     67        1          -0.000075192   -0.000309377   -0.000385560
     68        1           0.000217671   -0.000310689   -0.000114636
     69        1          -0.000236221   -0.000831025    0.000177932
     70        1          -0.000235409    0.000201588   -0.000454543
     71        1           0.000146917   -0.000059162   -0.000297337
     72        1           0.000216460    0.000206575   -0.000473685
 -------------------------------------------------------------------
 Cartesian Forces:  Max     0.007971639 RMS     0.001166892
 Leave Link  716 at Mon Jul 28 18:48:17 2025, MaxMem=  1073741824 cpu:               0.2 elap:               0.0
 (Enter /app/gaussian/g16/l103.exe)

 GradGradGradGradGradGradGradGradGradGradGradGradGradGradGradGradGradGrad
 Berny optimization.
 Using GEDIIS/GDIIS optimizer.
 FormGI is forming the generalized inverse of G from B-inverse, IUseBI=4.
 Internal  Forces:  Max     0.002798797 RMS     0.000621764
 Search for a local minimum.
 Step number   2 out of a maximum of  432
 All quantities printed in internal units (Hartrees-Bohrs-Radians)
 RMS Force = .62176D-03 SwitMx=.10000D-02 MixMth= 2
 Mixed Optimization -- En-DIIS/RFO-DIIS
 Update second derivatives using D2CorX and points    1    2
 DE= -8.87D-03 DEPred=-1.06D-02 R= 8.33D-01
 TightC=F SS=  1.41D+00  RLast= 3.85D-01 DXNew= 5.0454D-01 1.1548D+00
 Trust test= 8.33D-01 RLast= 3.85D-01 DXMaxT set to 5.05D-01
 ITU=  1  0
 Use linear search instead of GDIIS.
     Eigenvalues ---    0.00230   0.00230   0.00230   0.00231   0.00233
     Eigenvalues ---    0.00242   0.00285   0.00307   0.00331   0.00359
     Eigenvalues ---    0.00365   0.00375   0.00424   0.00496   0.00547
     Eigenvalues ---    0.00619   0.00904   0.01011   0.01267   0.01291
     Eigenvalues ---    0.01633   0.01870   0.02021   0.02120   0.02355
     Eigenvalues ---    0.02418   0.02455   0.02573   0.02599   0.02838
     Eigenvalues ---    0.02959   0.03022   0.03209   0.03468   0.03523
     Eigenvalues ---    0.03572   0.03627   0.03818   0.03978   0.04176
     Eigenvalues ---    0.04216   0.04426   0.04473   0.04624   0.04647
     Eigenvalues ---    0.04672   0.04713   0.04743   0.04807   0.04827
     Eigenvalues ---    0.04844   0.04883   0.04933   0.04997   0.05176
     Eigenvalues ---    0.05257   0.05268   0.05278   0.05312   0.05394
     Eigenvalues ---    0.05410   0.05454   0.05459   0.05488   0.05499
     Eigenvalues ---    0.05520   0.05529   0.05535   0.05563   0.05783
     Eigenvalues ---    0.05843   0.05893   0.05923   0.06324   0.06675
     Eigenvalues ---    0.06915   0.07043   0.07249   0.07381   0.07549
     Eigenvalues ---    0.08027   0.08068   0.08085   0.08172   0.08228
     Eigenvalues ---    0.08300   0.08728   0.08753   0.09193   0.09451
     Eigenvalues ---    0.09827   0.10223   0.10884   0.11096   0.12126
     Eigenvalues ---    0.12197   0.12509   0.12874   0.13002   0.14363
     Eigenvalues ---    0.14668   0.15352   0.15532   0.15846   0.15909
     Eigenvalues ---    0.15976   0.16000   0.16000   0.16000   0.16000
     Eigenvalues ---    0.16000   0.16000   0.16000   0.16000   0.16000
     Eigenvalues ---    0.16000   0.16000   0.16000   0.16000   0.16000
     Eigenvalues ---    0.16407   0.16670   0.17071   0.17205   0.17345
     Eigenvalues ---    0.18362   0.18997   0.19188   0.19661   0.20768
     Eigenvalues ---    0.21911   0.21975   0.22000   0.22426   0.22609
     Eigenvalues ---    0.22987   0.23783   0.24815   0.25346   0.26043
     Eigenvalues ---    0.26183   0.26706   0.26865   0.27234   0.27621
     Eigenvalues ---    0.27685   0.27913   0.28016   0.28139   0.28333
     Eigenvalues ---    0.28436   0.28497   0.28524   0.28589   0.28756
     Eigenvalues ---    0.28841   0.29145   0.29376   0.29445   0.30066
     Eigenvalues ---    0.30931   0.31604   0.33164   0.33246   0.33519
     Eigenvalues ---    0.33655   0.33715   0.33823   0.33883   0.33937
     Eigenvalues ---    0.33952   0.33961   0.33971   0.33984   0.34020
     Eigenvalues ---    0.34049   0.34056   0.34089   0.34103   0.34107
     Eigenvalues ---    0.34110   0.34130   0.34158   0.34172   0.34185
     Eigenvalues ---    0.34190   0.34198   0.34206   0.34211   0.34214
     Eigenvalues ---    0.34219   0.34226   0.34250   0.34268   0.34316
     Eigenvalues ---    0.34341   0.34356   0.34452   0.34457   0.34555
     Eigenvalues ---    0.34574   0.34778   0.34820   0.35171   0.35282
     Eigenvalues ---    0.37884   0.40904   0.52822   0.53231   0.54924
 RFO step:  Lambda=-2.26753093D-03 EMin= 2.29955920D-03
 Quartic linear search produced a step of -0.02266.
 Iteration  1 RMS(Cart)=  0.05888323 RMS(Int)=  0.00060719
 Iteration  2 RMS(Cart)=  0.00109823 RMS(Int)=  0.00006313
 Iteration  3 RMS(Cart)=  0.00000043 RMS(Int)=  0.00006313
 ITry= 1 IFail=0 DXMaxC= 2.74D-01 DCOld= 1.00D+10 DXMaxT= 5.05D-01 DXLimC= 3.00D+00 Rises=F
 Variable       Old X    -DE/DX   Delta X   Delta X   Delta X     New X
                                 (Linear)    (Quad)   (Total)
    R1        2.91940   0.00219   0.00001   0.00746   0.00747   2.92687
    R2        2.07116  -0.00051  -0.00006  -0.00120  -0.00126   2.06990
    R3        2.06656   0.00035  -0.00006   0.00124   0.00118   2.06774
    R4        2.06903   0.00036  -0.00008   0.00133   0.00125   2.07028
    R5        2.94520   0.00075  -0.00047   0.00640   0.00593   2.95113
    R6        2.91359  -0.00030  -0.00018   0.00039   0.00017   2.91376
    R7        2.96208  -0.00174  -0.00049  -0.00265  -0.00306   2.95902
    R8        2.85273  -0.00171  -0.00013  -0.00423  -0.00432   2.84841
    R9        2.91809  -0.00022  -0.00049   0.00008  -0.00047   2.91762
   R10        2.09388   0.00036  -0.00018   0.00181   0.00163   2.09550
   R11        2.90833  -0.00055  -0.00005  -0.00224  -0.00222   2.90611
   R12        2.55473   0.00025  -0.00034   0.00233   0.00203   2.55677
   R13        2.99356   0.00036   0.00037  -0.00106  -0.00072   2.99284
   R14        2.94796   0.00197   0.00003   0.00514   0.00515   2.95312
   R15        2.09537   0.00043  -0.00033   0.00261   0.00228   2.09765
   R16        2.94104   0.00112  -0.00031   0.00519   0.00488   2.94592
   R17        2.90215   0.00043  -0.00007   0.00119   0.00108   2.90323
   R18        2.95236   0.00198  -0.00009   0.00924   0.00913   2.96150
   R19        2.07219  -0.00016   0.00002  -0.00053  -0.00052   2.07167
   R20        2.07220  -0.00064  -0.00005  -0.00158  -0.00163   2.07057
   R21        2.07133  -0.00041  -0.00001  -0.00109  -0.00110   2.07023
   R22        2.55167  -0.00068  -0.00034   0.00021  -0.00015   2.55152
   R23        2.85808  -0.00213  -0.00031  -0.00667  -0.00697   2.85111
   R24        2.76444  -0.00109  -0.00097   0.00192   0.00098   2.76542
   R25        2.05712   0.00008  -0.00007   0.00052   0.00045   2.05757
   R26        2.05443  -0.00029  -0.00005  -0.00059  -0.00064   2.05379
   R27        2.90805   0.00228  -0.00006   0.00701   0.00697   2.91501
   R28        2.07117  -0.00025   0.00005  -0.00094  -0.00088   2.07029
   R29        2.07956  -0.00010  -0.00013   0.00026   0.00013   2.07969
   R30        2.77934  -0.00049  -0.00174   0.00608   0.00434   2.78369
   R31        2.92617  -0.00194  -0.00048  -0.00408  -0.00456   2.92161
   R32        2.08120  -0.00104  -0.00020  -0.00208  -0.00228   2.07892
   R33        1.84805  -0.00012  -0.00022   0.00072   0.00050   1.84855
   R34        2.91339  -0.00123  -0.00040  -0.00222  -0.00263   2.91075
   R35        2.07530   0.00054  -0.00008   0.00188   0.00180   2.07710
   R36        2.07776  -0.00068  -0.00012  -0.00143  -0.00155   2.07621
   R37        2.07370  -0.00053  -0.00010  -0.00109  -0.00119   2.07251
   R38        2.07623  -0.00022   0.00000  -0.00064  -0.00064   2.07559
   R39        2.92757  -0.00138  -0.00054  -0.00273  -0.00332   2.92425
   R40        2.06796  -0.00080  -0.00003  -0.00211  -0.00214   2.06582
   R41        2.07469  -0.00027  -0.00008  -0.00043  -0.00051   2.07418
   R42        2.08113   0.00007  -0.00016   0.00087   0.00071   2.08184
   R43        2.07829  -0.00006  -0.00014   0.00038   0.00025   2.07854
   R44        2.96321  -0.00096  -0.00115   0.00058  -0.00062   2.96260
   R45        2.07198  -0.00034  -0.00005  -0.00072  -0.00078   2.07120
   R46        2.07330   0.00003  -0.00004   0.00026   0.00022   2.07352
   R47        2.96606  -0.00046  -0.00100   0.00339   0.00243   2.96849
   R48        2.06546   0.00050  -0.00013   0.00194   0.00181   2.06727
   R49        2.07226  -0.00015  -0.00002  -0.00035  -0.00037   2.07189
   R50        2.94818  -0.00164  -0.00042  -0.00398  -0.00440   2.94378
   R51        2.08812   0.00005  -0.00001   0.00018   0.00017   2.08829
   R52        2.94505  -0.00182  -0.00067  -0.00340  -0.00407   2.94099
   R53        2.92923  -0.00050  -0.00045   0.00020  -0.00025   2.92899
   R54        2.08680  -0.00034  -0.00017  -0.00026  -0.00043   2.08638
   R55        2.91881  -0.00121  -0.00061  -0.00141  -0.00202   2.91679
   R56        2.07122   0.00044  -0.00017   0.00194   0.00177   2.07300
   R57        2.08400  -0.00003  -0.00013   0.00047   0.00034   2.08434
   R58        2.92346  -0.00237  -0.00053  -0.00567  -0.00620   2.91726
   R59        2.07548   0.00095  -0.00015   0.00330   0.00315   2.07863
   R60        2.06784   0.00106  -0.00018   0.00370   0.00352   2.07136
   R61        2.92824  -0.00123  -0.00040  -0.00249  -0.00288   2.92535
   R62        2.08057   0.00018  -0.00014   0.00110   0.00096   2.08153
   R63        2.08107   0.00067  -0.00015   0.00254   0.00239   2.08346
   R64        2.92082  -0.00172  -0.00064  -0.00297  -0.00360   2.91722
   R65        2.91677  -0.00075  -0.00060   0.00005  -0.00055   2.91622
   R66        2.08241   0.00064  -0.00019   0.00262   0.00243   2.08484
   R67        2.07514   0.00043  -0.00011   0.00168   0.00157   2.07671
   R68        2.07459  -0.00023  -0.00011  -0.00017  -0.00028   2.07431
   R69        2.07422  -0.00028  -0.00010  -0.00037  -0.00047   2.07375
   R70        2.07560   0.00041  -0.00014   0.00172   0.00159   2.07719
   R71        2.07395  -0.00000  -0.00009   0.00036   0.00027   2.07422
   R72        2.07170  -0.00017  -0.00009  -0.00009  -0.00018   2.07152
   R73        2.07487  -0.00025  -0.00010  -0.00027  -0.00038   2.07449
   R74        2.07330   0.00012  -0.00008   0.00066   0.00058   2.07388
   R75        2.07038   0.00030  -0.00006   0.00110   0.00104   2.07142
    A1        1.93937  -0.00041   0.00048  -0.00230  -0.00182   1.93756
    A2        1.95772  -0.00057   0.00015  -0.00583  -0.00569   1.95203
    A3        1.94084   0.00021   0.00003   0.00071   0.00074   1.94158
    A4        1.86473   0.00058  -0.00031   0.00543   0.00512   1.86985
    A5        1.87070   0.00049  -0.00049   0.00841   0.00792   1.87862
    A6        1.88642  -0.00025   0.00007  -0.00573  -0.00568   1.88074
    A7        1.92315   0.00061   0.00053   0.00650   0.00697   1.93012
    A8        1.92707   0.00053   0.00004   0.00771   0.00778   1.93486
    A9        1.98672  -0.00098   0.00001  -0.01002  -0.00997   1.97675
   A10        1.87150  -0.00044  -0.00001  -0.00289  -0.00293   1.86856
   A11        1.73610  -0.00028  -0.00019  -0.00481  -0.00494   1.73116
   A12        2.00588   0.00053  -0.00036   0.00292   0.00251   2.00839
   A13        1.99054   0.00058  -0.00014   0.00714   0.00708   1.99762
   A14        1.81666  -0.00040  -0.00038   0.00099   0.00053   1.81718
   A15        1.83822  -0.00056   0.00113  -0.01740  -0.01626   1.82196
   A16        2.11140  -0.00032   0.00032  -0.00253  -0.00226   2.10914
   A17        1.83050   0.00018  -0.00041   0.00406   0.00367   1.83417
   A18        1.85596   0.00047  -0.00035   0.00489   0.00457   1.86053
   A19        2.00881   0.00014   0.00007  -0.00247  -0.00261   2.00619
   A20        2.16170  -0.00067  -0.00024  -0.00316  -0.00379   2.15791
   A21        2.10076   0.00044   0.00028  -0.00136  -0.00145   2.09931
   A22        1.98427  -0.00054  -0.00019  -0.00289  -0.00314   1.98113
   A23        1.97025  -0.00062   0.00003  -0.00630  -0.00625   1.96401
   A24        1.83864   0.00017  -0.00043  -0.00068  -0.00109   1.83755
   A25        1.95066   0.00145   0.00030   0.01012   0.01047   1.96113
   A26        1.85965  -0.00038   0.00034  -0.00437  -0.00408   1.85557
   A27        1.84743  -0.00013  -0.00006   0.00399   0.00391   1.85134
   A28        1.94527   0.00107   0.00014   0.01224   0.01234   1.95760
   A29        1.93985  -0.00026  -0.00017  -0.00785  -0.00802   1.93183
   A30        1.91636   0.00007   0.00018   0.00676   0.00686   1.92321
   A31        1.86375  -0.00082  -0.00013  -0.00898  -0.00905   1.85470
   A32        1.90017  -0.00021  -0.00034   0.00340   0.00292   1.90309
   A33        1.89693   0.00011   0.00030  -0.00619  -0.00586   1.89107
   A34        1.92027  -0.00073   0.00064  -0.00753  -0.00691   1.91336
   A35        1.95150  -0.00007  -0.00005   0.00042   0.00037   1.95187
   A36        1.94693  -0.00085   0.00007  -0.00553  -0.00548   1.94145
   A37        1.86776   0.00046  -0.00036   0.00455   0.00419   1.87195
   A38        1.87969   0.00068  -0.00023   0.00373   0.00348   1.88317
   A39        1.89457   0.00061  -0.00011   0.00503   0.00492   1.89949
   A40        2.10328   0.00044   0.00039  -0.00060  -0.00061   2.10267
   A41        2.02583  -0.00001   0.00006  -0.00383  -0.00400   2.02183
   A42        2.15406  -0.00044  -0.00046   0.00419   0.00351   2.15757
   A43        2.13006  -0.00033  -0.00005  -0.00255  -0.00266   2.12740
   A44        2.09546  -0.00001   0.00045  -0.00146  -0.00098   2.09448
   A45        2.05554   0.00035  -0.00040   0.00425   0.00388   2.05942
   A46        2.11870   0.00018   0.00001   0.00121   0.00125   2.11995
   A47        2.10184  -0.00041   0.00051  -0.00430  -0.00383   2.09800
   A48        2.05506   0.00024  -0.00059   0.00431   0.00369   2.05875
   A49        1.95079  -0.00091  -0.00025  -0.00965  -0.00993   1.94086
   A50        1.93226  -0.00029   0.00040   0.00443   0.00483   1.93710
   A51        1.93509   0.00071  -0.00061  -0.00156  -0.00245   1.93264
   A52        1.91537   0.00114  -0.00034   0.01571   0.01540   1.93077
   A53        1.87349  -0.00095   0.00126  -0.01923  -0.01809   1.85540
   A54        1.85345   0.00037  -0.00043   0.01084   0.01050   1.86395
   A55        1.85309  -0.00174   0.00074  -0.02318  -0.02253   1.83056
   A56        1.95050   0.00103   0.00066  -0.00317  -0.00270   1.94780
   A57        1.89857   0.00088   0.00042   0.02091   0.02128   1.91984
   A58        1.95661  -0.00022  -0.00115  -0.00302  -0.00434   1.95227
   A59        1.89923  -0.00002  -0.00072  -0.00261  -0.00313   1.89609
   A60        1.90415   0.00005   0.00002   0.01112   0.01104   1.91520
   A61        1.95566  -0.00280  -0.00183  -0.00905  -0.01088   1.94478
   A62        1.94732  -0.00006  -0.00009  -0.00096  -0.00104   1.94628
   A63        1.90503   0.00035   0.00058   0.00129   0.00184   1.90687
   A64        1.91472  -0.00131  -0.00012  -0.01403  -0.01415   1.90057
   A65        1.92006  -0.00010  -0.00029   0.00939   0.00909   1.92915
   A66        1.91314   0.00115  -0.00025   0.00532   0.00502   1.91816
   A67        1.86159  -0.00005   0.00017  -0.00110  -0.00096   1.86062
   A68        1.96063  -0.00025   0.00005  -0.00528  -0.00530   1.95532
   A69        1.91494   0.00051   0.00047   0.00193   0.00242   1.91735
   A70        1.91530  -0.00030   0.00023  -0.00258  -0.00233   1.91297
   A71        1.92538  -0.00031  -0.00045   0.00079   0.00035   1.92573
   A72        1.89310   0.00023  -0.00017   0.00095   0.00079   1.89389
   A73        1.85116   0.00014  -0.00016   0.00473   0.00456   1.85573
   A74        2.00586   0.00027   0.00001  -0.00183  -0.00195   2.00391
   A75        1.91677   0.00031   0.00044  -0.00289  -0.00247   1.91430
   A76        1.89686  -0.00002   0.00031   0.00459   0.00494   1.90181
   A77        1.88855  -0.00064  -0.00049  -0.00597  -0.00641   1.88214
   A78        1.89968  -0.00022  -0.00025   0.00151   0.00127   1.90095
   A79        1.84976   0.00030  -0.00004   0.00522   0.00518   1.85494
   A80        1.94168  -0.00014   0.00000  -0.00231  -0.00231   1.93936
   A81        1.90281   0.00020   0.00059  -0.00333  -0.00276   1.90005
   A82        1.93400  -0.00010  -0.00018   0.00234   0.00217   1.93617
   A83        1.92074  -0.00025  -0.00052   0.00155   0.00102   1.92176
   A84        1.90163   0.00013   0.00019  -0.00211  -0.00190   1.89973
   A85        1.86134   0.00017  -0.00009   0.00416   0.00408   1.86542
   A86        1.81345   0.00042   0.00021  -0.00035  -0.00021   1.81323
   A87        1.95925   0.00016  -0.00014   0.00225   0.00214   1.96139
   A88        1.93065  -0.00041   0.00045  -0.00419  -0.00374   1.92691
   A89        1.95822  -0.00022  -0.00037   0.00180   0.00148   1.95970
   A90        1.93849  -0.00029  -0.00046  -0.00228  -0.00275   1.93575
   A91        1.86536   0.00031   0.00029   0.00248   0.00276   1.86812
   A92        1.85301  -0.00045  -0.00007  -0.00056  -0.00062   1.85239
   A93        1.93306   0.00041  -0.00040   0.00210   0.00163   1.93469
   A94        1.93604   0.00020  -0.00027   0.00478   0.00449   1.94054
   A95        1.96734  -0.00056   0.00040  -0.01365  -0.01324   1.95410
   A96        1.92160   0.00021   0.00005   0.00367   0.00370   1.92530
   A97        1.85426   0.00020   0.00028   0.00381   0.00409   1.85835
   A98        1.81329   0.00065   0.00008  -0.00388  -0.00412   1.80917
   A99        2.12409  -0.00140  -0.00011  -0.01740  -0.01783   2.10626
   A100       1.80100   0.00030   0.00057   0.00950   0.01017   1.81117
   A101       2.06665  -0.00007  -0.00009  -0.01077  -0.01130   2.05535
   A102       1.83415  -0.00005  -0.00050   0.01512   0.01465   1.84880
   A103       1.78596   0.00079   0.00007   0.01741   0.01770   1.80366
   A104       2.11301  -0.00210  -0.00009  -0.01686  -0.01696   2.09605
   A105       1.90806   0.00085   0.00020   0.00059   0.00068   1.90874
   A106       1.82404   0.00054   0.00023   0.00619   0.00640   1.83043
   A107       1.92729   0.00065  -0.00021   0.00056   0.00025   1.92755
   A108       1.82454   0.00023  -0.00004   0.00186   0.00183   1.82637
   A109       1.84359   0.00002  -0.00009   0.01242   0.01231   1.85589
   A110       2.08188  -0.00218  -0.00067  -0.00949  -0.01021   2.07168
   A111       1.91693   0.00037   0.00009  -0.00358  -0.00355   1.91338
   A112       1.84609   0.00043   0.00047   0.00018   0.00068   1.84677
   A113       1.89797   0.00068   0.00035  -0.00164  -0.00137   1.89660
   A114       1.87310   0.00077   0.00009   0.00530   0.00539   1.87849
   A115       1.83075   0.00020  -0.00030   0.01266   0.01236   1.84310
   A116       1.95790  -0.00187  -0.00048  -0.00551  -0.00598   1.95192
   A117       1.91980   0.00049   0.00019  -0.00043  -0.00024   1.91956
   A118       1.91699   0.00054  -0.00005   0.00339   0.00335   1.92034
   A119       1.89604   0.00066   0.00017   0.00174   0.00190   1.89794
   A120       1.90193   0.00088  -0.00013   0.00719   0.00707   1.90900
   A121       1.86887  -0.00064   0.00032  -0.00639  -0.00607   1.86280
   A122       2.01417  -0.00150  -0.00077  -0.00352  -0.00429   2.00988
   A123       1.89291   0.00048   0.00010   0.00201   0.00211   1.89502
   A124       1.90704   0.00045   0.00003   0.00127   0.00129   1.90833
   A125       1.88982   0.00050   0.00016   0.00187   0.00205   1.89187
   A126       1.89690   0.00048   0.00043  -0.00019   0.00024   1.89714
   A127       1.85665  -0.00033   0.00011  -0.00131  -0.00120   1.85546
   A128       1.92844  -0.00025  -0.00028  -0.00131  -0.00158   1.92685
   A129       1.96446  -0.00016  -0.00002  -0.00248  -0.00249   1.96197
   A130       1.87733   0.00009   0.00045  -0.00149  -0.00104   1.87628
   A131       1.92705   0.00024  -0.00029   0.00176   0.00146   1.92851
   A132       1.87872   0.00015   0.00007   0.00345   0.00352   1.88224
   A133       1.88461  -0.00004   0.00010   0.00030   0.00039   1.88500
   A134       1.93307  -0.00006   0.00021  -0.00173  -0.00153   1.93154
   A135       1.94424  -0.00046  -0.00022  -0.00148  -0.00170   1.94254
   A136       1.94380  -0.00073  -0.00021  -0.00338  -0.00359   1.94021
   A137       1.88094   0.00025   0.00012   0.00083   0.00094   1.88188
   A138       1.88030   0.00034   0.00012   0.00085   0.00096   1.88127
   A139       1.87870   0.00074   0.00001   0.00529   0.00530   1.88400
   A140       1.93268  -0.00022   0.00021  -0.00320  -0.00300   1.92968
   A141       1.93448  -0.00019  -0.00003  -0.00019  -0.00022   1.93425
   A142       1.95944  -0.00075  -0.00034  -0.00286  -0.00321   1.95623
   A143       1.88000   0.00017   0.00009   0.00020   0.00029   1.88028
   A144       1.88321   0.00035   0.00012   0.00007   0.00018   1.88340
   A145       1.87084   0.00072  -0.00003   0.00638   0.00635   1.87719
   A146       1.93781  -0.00039  -0.00012  -0.00116  -0.00128   1.93652
   A147       1.93225  -0.00013   0.00007  -0.00096  -0.00089   1.93136
   A148       1.95695  -0.00046  -0.00004  -0.00337  -0.00342   1.95352
   A149       1.87717   0.00045  -0.00011   0.00475   0.00464   1.88181
   A150       1.87548   0.00043   0.00011   0.00185   0.00196   1.87744
   A151       1.88096   0.00016   0.00009  -0.00069  -0.00061   1.88035
    D1       -0.78855  -0.00004  -0.00034   0.01172   0.01137  -0.77718
    D2        1.27558   0.00012   0.00001   0.01696   0.01700   1.29258
    D3       -2.72127   0.00049  -0.00044   0.01927   0.01880  -2.70246
    D4        1.29749   0.00005  -0.00029   0.01312   0.01282   1.31030
    D5       -2.92157   0.00021   0.00006   0.01836   0.01845  -2.90312
    D6       -0.63523   0.00057  -0.00039   0.02067   0.02025  -0.61499
    D7       -2.87088  -0.00052  -0.00007   0.00218   0.00210  -2.86878
    D8       -0.80675  -0.00036   0.00028   0.00741   0.00773  -0.79901
    D9        1.47959   0.00000  -0.00017   0.00973   0.00953   1.48912
   D10        1.06845   0.00049   0.00007   0.01973   0.01979   1.08824
   D11       -1.26802   0.00080   0.00007   0.01672   0.01683  -1.25119
   D12        3.06591   0.00065   0.00019   0.01752   0.01771   3.08363
   D13       -1.02953  -0.00023  -0.00029   0.00842   0.00812  -1.02141
   D14        2.91718   0.00008  -0.00028   0.00542   0.00516   2.92234
   D15        0.96793  -0.00007  -0.00016   0.00622   0.00605   0.97398
   D16       -3.12291  -0.00053   0.00020   0.00844   0.00864  -3.11427
   D17        0.82380  -0.00021   0.00020   0.00543   0.00569   0.82948
   D18       -1.12545  -0.00037   0.00032   0.00623   0.00657  -1.11888
   D19       -1.06414  -0.00073  -0.00027  -0.01340  -0.01367  -1.07781
   D20        3.09766  -0.00047  -0.00002  -0.01163  -0.01163   3.08604
   D21        1.05427  -0.00074  -0.00016  -0.01605  -0.01618   1.03808
   D22        1.03134   0.00004   0.00040  -0.00285  -0.00252   1.02882
   D23       -1.09004   0.00030   0.00065  -0.00109  -0.00047  -1.09051
   D24       -3.13344   0.00004   0.00051  -0.00551  -0.00502  -3.13846
   D25        2.94280  -0.00031  -0.00001  -0.00897  -0.00902   2.93379
   D26        0.82142  -0.00004   0.00024  -0.00720  -0.00697   0.81445
   D27       -1.22197  -0.00031   0.00010  -0.01162  -0.01153  -1.23350
   D28        1.32432  -0.00023   0.00025  -0.01688  -0.01657   1.30775
   D29       -1.06312   0.00055   0.00041   0.02213   0.02251  -1.04061
   D30       -3.04816   0.00005  -0.00007   0.00149   0.00146  -3.04671
   D31       -0.72017  -0.00037  -0.00027  -0.01753  -0.01778  -0.73795
   D32       -3.10761   0.00041  -0.00011   0.02148   0.02130  -3.08630
   D33        1.19054  -0.00010  -0.00059   0.00083   0.00025   1.19079
   D34       -2.71196   0.00011  -0.00001  -0.01248  -0.01244  -2.72440
   D35        1.18378   0.00088   0.00015   0.02652   0.02664   1.21043
   D36       -0.80126   0.00038  -0.00033   0.00588   0.00559  -0.79567
   D37        0.87862   0.00024  -0.00008   0.00013   0.00005   0.87867
   D38       -2.42829  -0.00033   0.00084  -0.04806  -0.04714  -2.47543
   D39        3.06657  -0.00006  -0.00050   0.00669   0.00612   3.07270
   D40       -0.24034  -0.00063   0.00043  -0.04150  -0.04107  -0.28140
   D41       -1.12341   0.00051  -0.00111   0.01501   0.01386  -1.10955
   D42        1.85287  -0.00005  -0.00019  -0.03318  -0.03333   1.81954
   D43       -0.60260   0.00034  -0.00038   0.01054   0.01021  -0.59239
   D44       -2.72240   0.00025   0.00000   0.00737   0.00739  -2.71501
   D45        1.47889   0.00003  -0.00058   0.00559   0.00502   1.48391
   D46       -2.86876   0.00016  -0.00007   0.00144   0.00143  -2.86734
   D47        1.29462   0.00007   0.00032  -0.00173  -0.00139   1.29323
   D48       -0.78727  -0.00014  -0.00026  -0.00351  -0.00376  -0.79103
   D49        1.33375  -0.00027   0.00058  -0.00649  -0.00589   1.32786
   D50       -0.78605  -0.00036   0.00096  -0.00967  -0.00871  -0.79476
   D51       -2.86794  -0.00057   0.00038  -0.01144  -0.01108  -2.87902
   D52       -2.93787  -0.00066   0.00018  -0.01847  -0.01833  -2.95621
   D53       -0.69227   0.00035   0.00045  -0.01246  -0.01200  -0.70427
   D54        1.31559  -0.00002   0.00013  -0.01124  -0.01110   1.30449
   D55        0.36278   0.00000  -0.00067   0.02808   0.02737   0.39015
   D56        2.60838   0.00101  -0.00040   0.03409   0.03370   2.64209
   D57       -1.66695   0.00064  -0.00072   0.03530   0.03461  -1.63234
   D58       -2.88966   0.00044  -0.00015   0.02281   0.02258  -2.86708
   D59        0.11685   0.00060  -0.00082   0.03393   0.03306   0.14991
   D60        0.07834  -0.00019   0.00081  -0.02790  -0.02713   0.05121
   D61        3.08485  -0.00004   0.00014  -0.01678  -0.01665   3.06820
   D62        1.44306  -0.00040   0.00062  -0.03661  -0.03601   1.40704
   D63       -0.63375   0.00010   0.00080  -0.02815  -0.02735  -0.66110
   D64       -2.73315   0.00008   0.00041  -0.01982  -0.01936  -2.75251
   D65       -0.81250  -0.00035   0.00049  -0.03429  -0.03386  -0.84636
   D66       -2.88930   0.00015   0.00067  -0.02584  -0.02519  -2.91450
   D67        1.29448   0.00013   0.00028  -0.01750  -0.01720   1.27727
   D68       -2.82275  -0.00071   0.00021  -0.04174  -0.04156  -2.86431
   D69        1.38363  -0.00021   0.00038  -0.03329  -0.03290   1.35073
   D70       -0.71577  -0.00023  -0.00001  -0.02495  -0.02491  -0.74068
   D71        0.72104  -0.00003  -0.00046   0.02333   0.02293   0.74397
   D72       -1.41280   0.00037  -0.00016   0.03475   0.03463  -1.37817
   D73        2.85413  -0.00015  -0.00054   0.02752   0.02701   2.88114
   D74        2.98393  -0.00005  -0.00044   0.02272   0.02231   3.00624
   D75        0.85009   0.00035  -0.00015   0.03415   0.03401   0.88410
   D76       -1.16616  -0.00016  -0.00052   0.02692   0.02638  -1.13978
   D77       -1.28153   0.00015   0.00008   0.02496   0.02509  -1.25643
   D78        2.86782   0.00055   0.00038   0.03639   0.03679   2.90461
   D79        0.85157   0.00004  -0.00000   0.02916   0.02917   0.88074
   D80       -2.96746   0.00041   0.00007   0.02116   0.02126  -2.94621
   D81        1.24277   0.00036   0.00013   0.02015   0.02032   1.26309
   D82       -0.88250   0.00023   0.00025   0.01731   0.01761  -0.86489
   D83       -0.84585   0.00020  -0.00014   0.01300   0.01282  -0.83303
   D84       -2.91880   0.00015  -0.00007   0.01199   0.01188  -2.90692
   D85        1.23911   0.00002   0.00005   0.00915   0.00918   1.24829
   D86        1.19929  -0.00022  -0.00002   0.00263   0.00258   1.20188
   D87       -0.87366  -0.00027   0.00004   0.00162   0.00164  -0.87202
   D88       -2.99893  -0.00040   0.00016  -0.00122  -0.00106  -2.99999
   D89        0.53573   0.00057  -0.00081   0.03423   0.03340   0.56913
   D90       -2.61151  -0.00008   0.00020  -0.01010  -0.00984  -2.62135
   D91       -1.58932  -0.00006  -0.00080   0.02965   0.02879  -1.56052
   D92        1.54664  -0.00071   0.00020  -0.01467  -0.01445   1.53219
   D93        2.64659   0.00057  -0.00048   0.03366   0.03313   2.67972
   D94       -0.50064  -0.00007   0.00052  -0.01067  -0.01012  -0.51076
   D95        1.56720  -0.00062  -0.00015  -0.01534  -0.01554   1.55166
   D96       -0.58117  -0.00042   0.00006  -0.01408  -0.01405  -0.59522
   D97       -2.60856  -0.00070  -0.00016  -0.01942  -0.01961  -2.62818
   D98       -2.58198   0.00061  -0.00007   0.00623   0.00614  -2.57584
   D99        1.55283   0.00081   0.00013   0.00750   0.00763   1.56046
   D100      -0.47456   0.00053  -0.00009   0.00216   0.00206  -0.47249
   D101      -0.55806  -0.00042  -0.00025  -0.00596  -0.00620  -0.56426
   D102      -2.70643  -0.00022  -0.00005  -0.00470  -0.00471  -2.71114
   D103       1.54936  -0.00050  -0.00027  -0.01004  -0.01027   1.53909
   D104      -0.11592  -0.00076   0.00094  -0.03656  -0.03563  -0.15155
   D105       3.09734  -0.00082   0.00093  -0.04082  -0.03993   3.05741
   D106       3.03174  -0.00006  -0.00013   0.01117   0.01113   3.04287
   D107      -0.03818  -0.00012  -0.00014   0.00691   0.00683  -0.03135
   D108       1.07310  -0.00009  -0.00066   0.02624   0.02560   1.09870
   D109      -3.06899   0.00052  -0.00099   0.04284   0.04185  -3.02714
   D110      -1.01650   0.00125  -0.00167   0.05809   0.05641  -0.96009
   D111      -2.07432  -0.00076   0.00036  -0.01953  -0.01917  -2.09349
   D112       0.06678  -0.00015   0.00002  -0.00294  -0.00292   0.06386
   D113       2.11927   0.00058  -0.00065   0.01232   0.01164   2.13091
   D114      -0.22758   0.00055  -0.00100   0.03285   0.03185  -0.19573
   D115       3.04560   0.00045  -0.00045   0.02265   0.02215   3.06776
   D116       2.84391   0.00059  -0.00096   0.03680   0.03588   2.87979
   D117      -0.16610   0.00049  -0.00040   0.02660   0.02619  -0.13991
   D118      -2.61538  -0.00019   0.00033  -0.00106  -0.00089  -2.61627
   D119      -0.47698  -0.00099  -0.00020  -0.02193  -0.02218  -0.49916
   D120       1.62647   0.00031   0.00056   0.00382   0.00441   1.63088
   D121       1.51711   0.00000   0.00023  -0.01126  -0.01114   1.50596
   D122      -2.62767  -0.00079  -0.00029  -0.03213  -0.03244  -2.66011
   D123      -0.52422   0.00051   0.00047  -0.00638  -0.00585  -0.53007
   D124      -0.48991  -0.00050   0.00025  -0.02167  -0.02142  -0.51134
   D125       1.64849  -0.00130  -0.00028  -0.04254  -0.04271   1.60578
   D126      -2.53124  -0.00000   0.00048  -0.01679  -0.01613  -2.54737
   D127      -3.04664   0.00020  -0.00015   0.00538   0.00527  -3.04137
   D128       1.10201   0.00021  -0.00074   0.02649   0.02563   1.12764
   D129      -1.00575   0.00030   0.00036   0.01623   0.01667  -0.98908
   D130      -0.54350   0.00061   0.00060   0.00601   0.00662  -0.53689
   D131      -2.66918   0.00053   0.00062  -0.00606  -0.00543  -2.67461
   D132       1.58007   0.00112   0.00015   0.00247   0.00264   1.58272
   D133       1.53458  -0.00106   0.00118  -0.02783  -0.02664   1.50794
   D134      -0.59110  -0.00114   0.00121  -0.03990  -0.03868  -0.62978
   D135      -2.62503  -0.00054   0.00073  -0.03136  -0.03061  -2.65564
   D136      -2.64369  -0.00118  -0.00039  -0.02551  -0.02591  -2.66960
   D137       1.51382  -0.00127  -0.00036  -0.03758  -0.03795   1.47586
   D138      -0.52012  -0.00067  -0.00084  -0.02905  -0.02988  -0.55000
   D139       1.12160  -0.00065  -0.00061   0.00874   0.00812   1.12972
   D140      -3.01909  -0.00039  -0.00030   0.00808   0.00776  -3.01133
   D141      -0.99857  -0.00026  -0.00082   0.01473   0.01390  -0.98467
   D142      -3.04462  -0.00030  -0.00014   0.01616   0.01603  -3.02860
   D143      -0.90212  -0.00005   0.00018   0.01550   0.01567  -0.88646
   D144       1.11840   0.00008  -0.00035   0.02214   0.02180   1.14020
   D145      -1.00289   0.00026  -0.00023   0.02346   0.02325  -0.97964
   D146       1.13961   0.00051   0.00008   0.02280   0.02290   1.16251
   D147      -3.12305   0.00064  -0.00044   0.02945   0.02903  -3.09402
   D148      -0.92343  -0.00041   0.00009  -0.01773  -0.01761  -0.94104
   D149       1.18746  -0.00041   0.00048  -0.02240  -0.02193   1.16554
   D150      -3.06063  -0.00028   0.00019  -0.01773  -0.01754  -3.07817
   D151       1.22556  -0.00030   0.00030  -0.02738  -0.02704   1.19852
   D152      -2.94673  -0.00031   0.00069  -0.03205  -0.03136  -2.97809
   D153      -0.91164  -0.00017   0.00040  -0.02737  -0.02697  -0.93861
   D154      -3.05500  -0.00040  -0.00013  -0.02359  -0.02367  -3.07867
   D155      -0.94411  -0.00040   0.00026  -0.02826  -0.02799  -0.97210
   D156       1.09098  -0.00027  -0.00003  -0.02358  -0.02360   1.06738
   D157       0.13902  -0.00024   0.00027  -0.02149  -0.02125   0.11777
   D158       2.28019  -0.00096   0.00048  -0.03727  -0.03682   2.24337
   D159      -1.94840  -0.00032   0.00040  -0.02821  -0.02783  -1.97623
   D160       2.25951   0.00010   0.00003  -0.01802  -0.01800   2.24152
   D161      -1.88250  -0.00063   0.00024  -0.03379  -0.03356  -1.91606
   D162       0.17209   0.00001   0.00017  -0.02473  -0.02457   0.14752
   D163      -1.93711   0.00015  -0.00016  -0.01521  -0.01537  -1.95248
   D164       0.20406  -0.00058   0.00005  -0.03099  -0.03093   0.17313
   D165       2.25865   0.00006  -0.00002  -0.02193  -0.02194   2.23671
   D166       0.36865   0.00060   0.00002   0.02578   0.02583   0.39447
   D167       2.78639  -0.00086  -0.00015  -0.01527  -0.01542   2.77097
   D168      -1.51748   0.00006  -0.00045   0.01154   0.01107  -1.50641
   D169      -1.75069   0.00072   0.00033   0.03169   0.03201  -1.71868
   D170       0.66705  -0.00074   0.00016  -0.00937  -0.00923   0.65781
   D171       2.64637   0.00018  -0.00014   0.01745   0.01726   2.66363
   D172       2.46549   0.00069  -0.00032   0.03318   0.03288   2.49837
   D173      -1.39996  -0.00078  -0.00049  -0.00787  -0.00836  -1.40833
   D174       0.57936   0.00014  -0.00080   0.01894   0.01813   0.59749
   D175       1.03086  -0.00025  -0.00062   0.03112   0.03063   1.06149
   D176      -2.98311  -0.00038  -0.00080   0.01635   0.01571  -2.96739
   D177      -1.01639   0.00027  -0.00070   0.03381   0.03327  -0.98311
   D178      -1.25409   0.00047  -0.00050   0.07341   0.07276  -1.18134
   D179       1.01513   0.00034  -0.00068   0.05864   0.05784   1.07297
   D180       2.98185   0.00099  -0.00058   0.07610   0.07540   3.05725
   D181       3.02356   0.00002   0.00011   0.04783   0.04789   3.07146
   D182      -0.99040  -0.00011  -0.00007   0.03305   0.03298  -0.95742
   D183       0.97632   0.00054   0.00003   0.05051   0.05054   1.02686
   D184       1.14920   0.00002  -0.00031   0.00760   0.00732   1.15651
   D185      -1.05753   0.00056  -0.00032   0.02158   0.02126  -1.03627
   D186      -3.02441  -0.00005  -0.00026   0.00847   0.00824  -3.01617
   D187      -1.11167   0.00009  -0.00031   0.02263   0.02231  -1.08936
   D188       2.96478   0.00063  -0.00032   0.03661   0.03625   3.00103
   D189       0.99791   0.00001  -0.00026   0.02350   0.02323   1.02114
   D190      -3.08700  -0.00035  -0.00010   0.00708   0.00700  -3.07999
   D191       0.98946   0.00019  -0.00011   0.02107   0.02095   1.01041
   D192      -0.97741  -0.00042  -0.00004   0.00796   0.00793  -0.96949
   D193       0.95006   0.00071   0.00028  -0.00484  -0.00452   0.94554
   D194       3.03384   0.00093   0.00012  -0.00026  -0.00012   3.03372
   D195      -1.14808   0.00074   0.00026  -0.00410  -0.00381  -1.15189
   D196      -2.96696  -0.00088   0.00016  -0.02716  -0.02703  -2.99399
   D197      -0.88318  -0.00065  -0.00000  -0.02259  -0.02262  -0.90580
   D198       1.21809  -0.00084   0.00014  -0.02642  -0.02631   1.19177
   D199      -1.00383  -0.00030  -0.00002  -0.01831  -0.01833  -1.02216
   D200       1.07994  -0.00008  -0.00019  -0.01373  -0.01392   1.06602
   D201      -3.10197  -0.00026  -0.00005  -0.01757  -0.01761  -3.11958
   D202       3.00977  -0.00005   0.00038  -0.01045  -0.01008   2.99969
   D203       0.89731   0.00003   0.00035  -0.00867  -0.00833   0.88898
   D204      -1.15542   0.00020  -0.00013  -0.00264  -0.00279  -1.15820
   D205      -1.05778  -0.00071   0.00027  -0.02515  -0.02487  -1.08265
   D206       3.11294  -0.00063   0.00025  -0.02337  -0.02312   3.08982
   D207       1.06022  -0.00046  -0.00024  -0.01734  -0.01758   1.04264
   D208       0.91382   0.00023   0.00014  -0.00858  -0.00844   0.90539
   D209      -1.19864   0.00031   0.00011  -0.00680  -0.00668  -1.20532
   D210       3.03182   0.00048  -0.00037  -0.00077  -0.00114   3.03068
   D211      -3.06550   0.00003  -0.00010  -0.00041  -0.00052  -3.06601
   D212      -0.94253   0.00001  -0.00033   0.00115   0.00081  -0.94172
   D213       1.07447   0.00013  -0.00014   0.00138   0.00124   1.07571
   D214      -0.93940  -0.00011  -0.00006  -0.00334  -0.00340  -0.94280
   D215       1.18356  -0.00013  -0.00029  -0.00178  -0.00207   1.18149
   D216      -3.08262  -0.00002  -0.00009  -0.00155  -0.00164  -3.08426
   D217       1.09108  -0.00003   0.00035  -0.00606  -0.00570   1.08537
   D218      -3.06915  -0.00005   0.00012  -0.00450  -0.00437  -3.07352
   D219      -1.05214   0.00006   0.00032  -0.00427  -0.00394  -1.05609
   D220       3.02328   0.00002   0.00033  -0.00699  -0.00666   3.01661
   D221      -1.09668   0.00002  -0.00026  -0.00749  -0.00775  -1.10443
   D222       0.97712  -0.00008   0.00015  -0.00955  -0.00941   0.96772
   D223       0.89866   0.00004   0.00060  -0.00863  -0.00803   0.89062
   D224       3.06189   0.00004   0.00000  -0.00913  -0.00912   3.05277
   D225      -1.14750  -0.00005   0.00042  -0.01119  -0.01078  -1.15828
   D226      -1.11131  -0.00008   0.00015  -0.00798  -0.00783  -1.11914
   D227       1.05192  -0.00008  -0.00044  -0.00848  -0.00892   1.04300
   D228       3.12572  -0.00018  -0.00003  -0.01054  -0.01057   3.11515
   D229       1.09610  -0.00006  -0.00032   0.00178   0.00146   1.09756
   D230      -0.99718  -0.00003  -0.00045   0.00288   0.00242  -0.99476
   D231      -3.09489  -0.00016  -0.00017  -0.00054  -0.00071  -3.09560
   D232      -1.08851   0.00016   0.00010   0.00464   0.00475  -1.08376
   D233       3.10139   0.00019  -0.00003   0.00574   0.00571   3.10710
   D234       1.00369   0.00007   0.00025   0.00232   0.00257   1.00626
   D235       3.14140  -0.00000   0.00011   0.00128   0.00138  -3.14040
   D236       1.04811   0.00003  -0.00003   0.00238   0.00235   1.05046
   D237      -1.04959  -0.00010   0.00025  -0.00104  -0.00079  -1.05038
   D238      -0.99646   0.00003   0.00056  -0.01771  -0.01715  -1.01361
   D239      -3.08190   0.00009   0.00033  -0.01575  -0.01542  -3.09732
   D240       1.10968  -0.00019   0.00062  -0.02181  -0.02118   1.08849
   D241       1.16754  -0.00024  -0.00003  -0.01989  -0.01993   1.14761
   D242      -0.91790  -0.00018  -0.00026  -0.01793  -0.01820  -0.93610
   D243      -3.00951  -0.00046   0.00003  -0.02400  -0.02396  -3.03347
   D244      -3.06600   0.00005  -0.00006  -0.01458  -0.01464  -3.08064
   D245       1.13175   0.00011  -0.00029  -0.01262  -0.01291   1.11884
   D246      -0.95986  -0.00017   0.00001  -0.01868  -0.01867  -0.97853
         Item               Value     Threshold  Converged?
 Maximum Force            0.002799     0.000450     NO 
 RMS     Force            0.000622     0.000300     NO 
 Maximum Displacement     0.273989     0.001800     NO 
 RMS     Displacement     0.059044     0.001200     NO 
 Predicted change in Energy=-1.287051D-03
 Lowest energy point so far.  Saving SCF results.
 GradGradGradGradGradGradGradGradGradGradGradGradGradGradGradGradGradGrad

 Leave Link  103 at Mon Jul 28 18:48:17 2025, MaxMem=  1073741824 cpu:               1.1 elap:               0.2
 (Enter /app/gaussian/g16/l202.exe)
 Stoichiometry    C27H44O
 Framework group  C1[X(C27H44O)]
 Deg. of freedom   210
 Full point group                 C1      NOp   1
 RotChk:  IX=0 Diff= 1.05D-01
 Largest Abelian subgroup         C1      NOp   1
 Largest concise Abelian subgroup C1      NOp   1
                         Standard orientation:                         
 ---------------------------------------------------------------------
 Center     Atomic      Atomic             Coordinates (Angstroms)
 Number     Number       Type             X           Y           Z
 ---------------------------------------------------------------------
      1          6           0       -1.125201   -0.394038   -0.723518
      2          6           0       -0.667169    0.939341   -0.082280
      3          6           0        0.209802    0.668361    1.181172
      4          6           0        1.490934   -0.075727    0.903629
      5          6           0        2.345909    0.506810   -0.234195
      6          6           0        3.537618   -0.437963   -0.676322
      7          6           0        3.064590   -1.570806   -1.637117
      8          6           0        4.156043   -1.138346    0.543230
      9          6           0        3.389503   -1.469908    1.604146
     10          6           0        2.002131   -1.020617    1.726079
     11          6           0        5.622833   -1.474602    0.434803
     12          6           0        6.479064   -0.198792    0.298177
     13          8           0        7.647615   -0.610872   -0.498437
     14          6           0        5.692240    0.944477   -0.383082
     15          6           0        4.657161    0.399016   -1.384891
     16          6           0        1.483727    0.983679   -1.447183
     17          6           0        0.196583    1.753609   -1.066322
     18          6           0       -0.794801    0.149997    2.232748
     19          6           0       -2.111840    0.939315    1.916213
     20          6           0       -1.835694    1.735449    0.590502
     21          6           0       -3.064779    2.201314   -0.245562
     22          6           0       -3.966785    1.152188   -0.958163
     23          6           0       -4.796849    0.179329   -0.093917
     24          6           0       -5.779221   -0.651442   -0.947100
     25          6           0       -6.725229   -1.578518   -0.145853
     26          6           0       -7.772793   -2.217605   -1.082479
     27          6           0       -5.959823   -2.669094    0.632775
     28          6           0       -3.927460    3.168774    0.604237
     29          1           0       -0.296548   -1.108193   -0.779131
     30          1           0       -1.923205   -0.870511   -0.146076
     31          1           0       -1.497419   -0.237515   -1.741934
     32          1           0        0.528189    1.676091    1.516955
     33          1           0        2.812900    1.420562    0.189054
     34          1           0        3.865380   -2.309767   -1.757568
     35          1           0        2.825058   -1.185640   -2.634526
     36          1           0        2.185806   -2.088774   -1.237605
     37          1           0        3.818069   -2.035385    2.430037
     38          1           0        1.421861   -1.382150    2.570918
     39          1           0        5.953106   -2.071017    1.292379
     40          1           0        5.819065   -2.076320   -0.465521
     41          1           0        6.826905    0.128791    1.289113
     42          1           0        8.304954    0.110207   -0.568019
     43          1           0        6.397833    1.619909   -0.887132
     44          1           0        5.186866    1.538785    0.390544
     45          1           0        4.204805    1.221861   -1.951553
     46          1           0        5.179461   -0.230275   -2.118085
     47          1           0        1.191550    0.121691   -2.052706
     48          1           0        2.100423    1.619923   -2.094971
     49          1           0        0.455770    2.717258   -0.599560
     50          1           0       -0.364389    1.983847   -1.983989
     51          1           0       -0.447431    0.315716    3.258982
     52          1           0       -0.947886   -0.930203    2.115681
     53          1           0       -2.960163    0.256198    1.814057
     54          1           0       -2.364935    1.629992    2.729229
     55          1           0       -1.363008    2.685184    0.899958
     56          1           0       -2.637569    2.804905   -1.065393
     57          1           0       -3.364644    0.567786   -1.664754
     58          1           0       -4.670951    1.732597   -1.577722
     59          1           0       -5.369801    0.740543    0.658865
     60          1           0       -4.131082   -0.496282    0.455424
     61          1           0       -6.394125    0.038773   -1.546096
     62          1           0       -5.210569   -1.263386   -1.666622
     63          1           0       -7.263263   -0.951600    0.585344
     64          1           0       -7.284709   -2.855927   -1.832150
     65          1           0       -8.349312   -1.451815   -1.617354
     66          1           0       -8.479192   -2.841179   -0.519981
     67          1           0       -5.357368   -3.281909   -0.052605
     68          1           0       -6.656575   -3.337837    1.154419
     69          1           0       -5.285669   -2.242407    1.384514
     70          1           0       -3.321909    3.999567    0.989199
     71          1           0       -4.738589    3.595817    0.000827
     72          1           0       -4.381586    2.663858    1.464684
 ---------------------------------------------------------------------
 Rotational constants (GHZ):           0.4017539           0.0661739           0.0636100
 Leave Link  202 at Mon Jul 28 18:48:17 2025, MaxMem=  1073741824 cpu:               0.1 elap:               0.0
 (Enter /app/gaussian/g16/l301.exe)
 Standard basis: 6-31+G (6D, 7F)
 Ernie: Thresh=  0.10000D-02 Tol=  0.10000D-05 Strict=F.
 There are   452 symmetry adapted cartesian basis functions of A   symmetry.
 There are   452 symmetry adapted basis functions of A   symmetry.
   452 basis functions,   904 primitive gaussians,   452 cartesian basis functions
   107 alpha electrons      107 beta electrons
       nuclear repulsion energy      2777.6396314889 Hartrees.
 IExCor=  402 DFT=T Ex+Corr=B3LYP ExCW=0 ScaHFX=  0.200000
 ScaDFX=  0.800000  0.720000  1.000000  0.810000 ScalE2=  1.000000  1.000000
 IRadAn=      5 IRanWt=     -1 IRanGd=            0 ICorTp=0 IEmpDi=  4
 NAtoms=   72 NActive=   72 NUniq=   72 SFac= 1.00D+00 NAtFMM=   60 NAOKFM=T Big=T
 Integral buffers will be    131072 words long.
 Raffenetti 2 integral format.
 Two-electron integral symmetry is turned on.
 Leave Link  301 at Mon Jul 28 18:48:17 2025, MaxMem=  1073741824 cpu:               0.4 elap:               0.1
 (Enter /app/gaussian/g16/l302.exe)
 NPDir=0 NMtPBC=     1 NCelOv=     1 NCel=       1 NClECP=     1 NCelD=      1
         NCelK=      1 NCelE2=     1 NClLst=     1 CellRange=     0.0.
 One-electron integrals computed using PRISM.
 One-electron integral symmetry used in STVInt
 NBasis=   452 RedAO= T EigKep=  1.30D-06  NBF=   452
 NBsUse=   449 1.00D-06 EigRej=  7.84D-07 NBFU=   449
 Precomputing XC quadrature grid using
 IXCGrd= 4 IRadAn=           5 IRanWt=          -1 IRanGd=           0 AccXCQ= 0.00D+00.
 Generated NRdTot=       0 NPtTot=           0 NUsed=           0 NTot=          32
 NSgBfM=   442   441   442   442   442 MxSgAt=    72 MxSgA2=    72.
 Leave Link  302 at Mon Jul 28 18:48:19 2025, MaxMem=  1073741824 cpu:              10.4 elap:               1.3
 (Enter /app/gaussian/g16/l303.exe)
 DipDrv:  MaxL=1.
 Leave Link  303 at Mon Jul 28 18:48:19 2025, MaxMem=  1073741824 cpu:               0.4 elap:               0.1
 (Enter /app/gaussian/g16/l401.exe)
 Initial guess from the checkpoint file:  "/work/scr/Gau-256556.chk"
 B after Tr=     0.000000   -0.000000   -0.000000
         Rot=    0.999336   -0.036434    0.000910    0.000303 Ang=  -4.18 deg.
 Guess basis will be translated and rotated to current coordinates.
 JPrj=2 DoOrth=T DoCkMO=T.
 Generating alternative initial guess.
 ExpMin= 4.38D-02 ExpMax= 5.48D+03 ExpMxC= 8.25D+02 IAcc=3 IRadAn=         5 AccDes= 0.00D+00
 Harris functional with IExCor=  402 and IRadAn=       5 diagonalized for initial guess.
 HarFok:  IExCor=  402 AccDes= 0.00D+00 IRadAn=         5 IDoV= 1 UseB2=F ITyADJ=14
 ICtDFT=  3500011 ScaDFX=  1.000000  1.000000  1.000000  1.000000
 FoFCou: FMM=F IPFlag=           0 FMFlag=      100000 FMFlg1=        2001
         NFxFlg=           0 DoJE=T BraDBF=F KetDBF=T FulRan=T
         wScrn=  0.000000 ICntrl=       500 IOpCl=  0 I1Cent=   200000004 NGrid=           0
         NMat0=    1 NMatS0=      1 NMatT0=    0 NMatD0=    1 NMtDS0=    0 NMtDT0=    0
 Petite list used in FoFCou.
 Harris En= -1130.39902126474    
 Leave Link  401 at Mon Jul 28 18:48:28 2025, MaxMem=  1073741824 cpu:              75.7 elap:               9.5
 (Enter /app/gaussian/g16/l502.exe)
 Integral symmetry usage will be decided dynamically.
 Closed shell SCF:
 Using DIIS extrapolation, IDIIS=  1040.
 NGot=  1073741824 LenX=  1073322182 LenY=  1073117426
 Requested convergence on RMS density matrix=1.00D-08 within 128 cycles.
 Requested convergence on MAX density matrix=1.00D-06.
 Requested convergence on             energy=1.00D-06.
 No special actions if energy rises.
 Fock matrices will be formed incrementally for  20 cycles.

 Cycle   1  Pass 1  IDiag  1:
 FoFJK:  IHMeth= 1 ICntrl=       0 DoSepK=F KAlg= 0 I1Cent=           0 FoldK=F
 IRaf= 990000000 NMat=       1 IRICut=       1 DoRegI=T DoRafI=F ISym2E= 0 IDoP0=0 IntGTp=1.
 FoFCou: FMM=T IPFlag=           0 FMFlag=      100000 FMFlg1=        2001
         NFxFlg=           0 DoJE=F BraDBF=F KetDBF=F FulRan=T
         wScrn=  0.000000 ICntrl=         0 IOpCl=  0 I1Cent=           0 NGrid=           0
         NMat0=    1 NMatS0=      1 NMatT0=    0 NMatD0=    1 NMtDS0=    0 NMtDT0=    0
 Symmetry not used in FoFCou.
 FMM levels:  10  Number of levels for PrismC:   9
 E= -1130.29933374477    
 DIIS: error= 1.33D-02 at cycle   1 NSaved=   1.
 NSaved= 1 IEnMin= 1 EnMin= -1130.29933374477     IErMin= 1 ErrMin= 1.33D-02
 ErrMax= 1.33D-02  0.00D+00 EMaxC= 1.00D-01 BMatC= 3.55D-02 BMatP= 3.55D-02
 IDIUse=3 WtCom= 8.67D-01 WtEn= 1.33D-01
 Coeff-Com:  0.100D+01
 Coeff-En:   0.100D+01
 Coeff:      0.100D+01
 Recover alternate guess density for next cycle.
 RMSDP=2.03D-02 MaxDP=1.65D+00              OVMax= 0.00D+00

 Cycle   2  Pass 1  IDiag  1:
 RMSU=  1.94D-02    CP:  1.06D+00
 E= -1129.48753870030     Delta-E=        0.811795044473 Rises=F Damp=F
 Switch densities from cycles 1 and 2 for lowest energy.
 DIIS: error= 2.22D-02 at cycle   2 NSaved=   2.
 NSaved= 2 IEnMin= 1 EnMin= -1130.29933374477     IErMin= 1 ErrMin= 1.33D-02
 ErrMax= 2.22D-02  0.00D+00 EMaxC= 1.00D+00 BMatC= 7.34D-01 BMatP= 3.55D-02
 IDIUse=1 WtCom= 1.00D+00 WtEn= 0.00D+00
 Coeff-Com:  0.952D+00 0.477D-01
 Coeff:      0.952D+00 0.477D-01
 Gap=     0.178 Goal=   None    Shift=    0.000
 RMSDP=8.69D-03 MaxDP=1.06D+00 DE= 8.12D-01 OVMax= 9.10D-02

 Cycle   3  Pass 1  IDiag  1:
 RMSU=  7.17D-03    CP:  1.05D+00  9.82D-02
 E= -1130.32208510967     Delta-E=       -0.834546409369 Rises=F Damp=F
 DIIS: error= 1.42D-03 at cycle   3 NSaved=   3.
 NSaved= 3 IEnMin= 3 EnMin= -1130.32208510967     IErMin= 3 ErrMin= 1.42D-03
 ErrMax= 1.42D-03  0.00D+00 EMaxC= 1.00D+00 BMatC= 2.27D-03 BMatP= 3.55D-02
 IDIUse=1 WtCom= 1.00D+00 WtEn= 0.00D+00
 Coeff-Com:  0.322D-04 0.483D-01 0.952D+00
 Coeff:      0.322D-04 0.483D-01 0.952D+00
 Gap=     0.173 Goal=   None    Shift=    0.000
 RMSDP=3.32D-03 MaxDP=4.86D-01 DE=-8.35D-01 OVMax= 1.12D-02

 Cycle   4  Pass 1  IDiag  1:
 RMSU=  1.79D-03    CP:  1.02D+00  1.24D-01  9.17D-01
 E= -1130.32405701933     Delta-E=       -0.001971909664 Rises=F Damp=F
 DIIS: error= 8.32D-04 at cycle   4 NSaved=   4.
 NSaved= 4 IEnMin= 4 EnMin= -1130.32405701933     IErMin= 4 ErrMin= 8.32D-04
 ErrMax= 8.32D-04  0.00D+00 EMaxC= 1.00D+00 BMatC= 5.06D-04 BMatP= 2.27D-03
 IDIUse=1 WtCom= 1.00D+00 WtEn= 0.00D+00
 Coeff-Com: -0.676D-02 0.237D-01 0.515D+00 0.468D+00
 Coeff:     -0.676D-02 0.237D-01 0.515D+00 0.468D+00
 Gap=     0.173 Goal=   None    Shift=    0.000
 RMSDP=1.02D-03 MaxDP=6.83D-02 DE=-1.97D-03 OVMax= 9.79D-03

 Cycle   5  Pass 1  IDiag  1:
 RMSU=  7.36D-04    CP:  1.02D+00  1.33D-01  9.17D-01  6.24D-01
 E= -1130.32449807665     Delta-E=       -0.000441057316 Rises=F Damp=F
 DIIS: error= 2.28D-04 at cycle   5 NSaved=   5.
 NSaved= 5 IEnMin= 5 EnMin= -1130.32449807665     IErMin= 5 ErrMin= 2.28D-04
 ErrMax= 2.28D-04  0.00D+00 EMaxC= 1.00D+00 BMatC= 5.06D-05 BMatP= 5.06D-04
 IDIUse=1 WtCom= 1.00D+00 WtEn= 0.00D+00
 Coeff-Com: -0.245D-02 0.463D-02 0.134D+00 0.259D+00 0.605D+00
 Coeff:     -0.245D-02 0.463D-02 0.134D+00 0.259D+00 0.605D+00
 Gap=     0.173 Goal=   None    Shift=    0.000
 RMSDP=3.11D-04 MaxDP=3.28D-02 DE=-4.41D-04 OVMax= 4.47D-03

 Cycle   6  Pass 1  IDiag  1:
 RMSU=  1.84D-04    CP:  1.02D+00  1.33D-01  9.27D-01  6.21D-01  7.05D-01
 E= -1130.32454202360     Delta-E=       -0.000043946956 Rises=F Damp=F
 DIIS: error= 1.08D-04 at cycle   6 NSaved=   6.
 NSaved= 6 IEnMin= 6 EnMin= -1130.32454202360     IErMin= 6 ErrMin= 1.08D-04
 ErrMax= 1.08D-04  0.00D+00 EMaxC= 1.00D+00 BMatC= 8.29D-06 BMatP= 5.06D-05
 IDIUse=1 WtCom= 1.00D+00 WtEn= 0.00D+00
 Coeff-Com: -0.862D-03 0.738D-03 0.369D-01 0.120D+00 0.376D+00 0.466D+00
 Coeff:     -0.862D-03 0.738D-03 0.369D-01 0.120D+00 0.376D+00 0.466D+00
 Gap=     0.173 Goal=   None    Shift=    0.000
 RMSDP=1.18D-04 MaxDP=9.92D-03 DE=-4.39D-05 OVMax= 1.58D-03

 Cycle   7  Pass 1  IDiag  1:
 RMSU=  6.98D-05    CP:  1.02D+00  1.32D-01  9.28D-01  6.19D-01  6.88D-01
                    CP:  7.14D-01
 E= -1130.32455067576     Delta-E=       -0.000008652154 Rises=F Damp=F
 DIIS: error= 1.91D-05 at cycle   7 NSaved=   7.
 NSaved= 7 IEnMin= 7 EnMin= -1130.32455067576     IErMin= 7 ErrMin= 1.91D-05
 ErrMax= 1.91D-05  0.00D+00 EMaxC= 1.00D+00 BMatC= 3.17D-07 BMatP= 8.29D-06
 IDIUse=1 WtCom= 1.00D+00 WtEn= 0.00D+00
 Coeff-Com: -0.200D-03-0.348D-04 0.468D-02 0.330D-01 0.121D+00 0.220D+00
 Coeff-Com:  0.621D+00
 Coeff:     -0.200D-03-0.348D-04 0.468D-02 0.330D-01 0.121D+00 0.220D+00
 Coeff:      0.621D+00
 Gap=     0.173 Goal=   None    Shift=    0.000
 RMSDP=4.34D-05 MaxDP=3.47D-03 DE=-8.65D-06 OVMax= 3.34D-04

 Cycle   8  Pass 1  IDiag  1:
 RMSU=  1.86D-05    CP:  1.02D+00  1.32D-01  9.28D-01  6.30D-01  6.95D-01
                    CP:  7.18D-01  7.06D-01
 E= -1130.32455096043     Delta-E=       -0.000000284673 Rises=F Damp=F
 DIIS: error= 9.09D-06 at cycle   8 NSaved=   8.
 NSaved= 8 IEnMin= 8 EnMin= -1130.32455096043     IErMin= 8 ErrMin= 9.09D-06
 ErrMax= 9.09D-06  0.00D+00 EMaxC= 1.00D+00 BMatC= 7.26D-08 BMatP= 3.17D-07
 IDIUse=1 WtCom= 1.00D+00 WtEn= 0.00D+00
 Coeff-Com: -0.362D-04-0.943D-04-0.172D-02 0.574D-02 0.293D-01 0.781D-01
 Coeff-Com:  0.378D+00 0.511D+00
 Coeff:     -0.362D-04-0.943D-04-0.172D-02 0.574D-02 0.293D-01 0.781D-01
 Coeff:      0.378D+00 0.511D+00
 Gap=     0.173 Goal=   None    Shift=    0.000
 RMSDP=8.51D-06 MaxDP=6.08D-04 DE=-2.85D-07 OVMax= 9.77D-05

 Cycle   9  Pass 1  IDiag  1:
 RMSU=  6.20D-06    CP:  1.02D+00  1.32D-01  9.27D-01  6.29D-01  6.99D-01
                    CP:  7.10D-01  7.20D-01  8.50D-01
 E= -1130.32455102683     Delta-E=       -0.000000066399 Rises=F Damp=F
 DIIS: error= 1.89D-06 at cycle   9 NSaved=   9.
 NSaved= 9 IEnMin= 9 EnMin= -1130.32455102683     IErMin= 9 ErrMin= 1.89D-06
 ErrMax= 1.89D-06  0.00D+00 EMaxC= 1.00D+00 BMatC= 2.27D-09 BMatP= 7.26D-08
 IDIUse=1 WtCom= 1.00D+00 WtEn= 0.00D+00
 Coeff-Com: -0.417D-05-0.394D-04-0.111D-02 0.331D-03 0.498D-02 0.207D-01
 Coeff-Com:  0.132D+00 0.230D+00 0.613D+00
 Coeff:     -0.417D-05-0.394D-04-0.111D-02 0.331D-03 0.498D-02 0.207D-01
 Coeff:      0.132D+00 0.230D+00 0.613D+00
 Gap=     0.173 Goal=   None    Shift=    0.000
 RMSDP=2.69D-06 MaxDP=2.25D-04 DE=-6.64D-08 OVMax= 2.30D-05

 Cycle  10  Pass 1  IDiag  1:
 RMSU=  2.29D-06    CP:  1.02D+00  1.32D-01  9.27D-01  6.29D-01  6.98D-01
                    CP:  7.15D-01  7.34D-01  8.50D-01  9.12D-01
 E= -1130.32455102883     Delta-E=       -0.000000002002 Rises=F Damp=F
 DIIS: error= 1.31D-06 at cycle  10 NSaved=  10.
 NSaved=10 IEnMin=10 EnMin= -1130.32455102883     IErMin=10 ErrMin= 1.31D-06
 ErrMax= 1.31D-06  0.00D+00 EMaxC= 1.00D+00 BMatC= 6.31D-10 BMatP= 2.27D-09
 IDIUse=1 WtCom= 1.00D+00 WtEn= 0.00D+00
 Coeff-Com:  0.181D-05-0.112D-04-0.431D-03-0.540D-03-0.870D-03 0.212D-02
 Coeff-Com:  0.294D-01 0.707D-01 0.380D+00 0.520D+00
 Coeff:      0.181D-05-0.112D-04-0.431D-03-0.540D-03-0.870D-03 0.212D-02
 Coeff:      0.294D-01 0.707D-01 0.380D+00 0.520D+00
 Gap=     0.173 Goal=   None    Shift=    0.000
 RMSDP=1.37D-06 MaxDP=1.73D-04 DE=-2.00D-09 OVMax= 1.17D-05

 Cycle  11  Pass 1  IDiag  1:
 RMSU=  7.66D-07    CP:  1.02D+00  1.32D-01  9.27D-01  6.29D-01  6.99D-01
                    CP:  7.16D-01  7.34D-01  8.37D-01  8.66D-01  8.37D-01
 E= -1130.32455102935     Delta-E=       -0.000000000522 Rises=F Damp=F
 DIIS: error= 3.48D-07 at cycle  11 NSaved=  11.
 NSaved=11 IEnMin=11 EnMin= -1130.32455102935     IErMin=11 ErrMin= 3.48D-07
 ErrMax= 3.48D-07  0.00D+00 EMaxC= 1.00D+00 BMatC= 4.44D-11 BMatP= 6.31D-10
 IDIUse=1 WtCom= 1.00D+00 WtEn= 0.00D+00
 Coeff-Com:  0.122D-05-0.208D-05-0.118D-03-0.319D-03-0.966D-03-0.912D-03
 Coeff-Com:  0.248D-02 0.146D-01 0.137D+00 0.278D+00 0.570D+00
 Coeff:      0.122D-05-0.208D-05-0.118D-03-0.319D-03-0.966D-03-0.912D-03
 Coeff:      0.248D-02 0.146D-01 0.137D+00 0.278D+00 0.570D+00
 Gap=     0.173 Goal=   None    Shift=    0.000
 RMSDP=3.81D-07 MaxDP=2.07D-05 DE=-5.22D-10 OVMax= 2.82D-06

 Cycle  12  Pass 1  IDiag  1:
 RMSU=  2.19D-07    CP:  1.02D+00  1.32D-01  9.27D-01  6.29D-01  6.99D-01
                    CP:  7.16D-01  7.33D-01  8.46D-01  8.80D-01  7.78D-01
                    CP:  7.92D-01
 E= -1130.32455102940     Delta-E=       -0.000000000050 Rises=F Damp=F
 DIIS: error= 9.70D-08 at cycle  12 NSaved=  12.
 NSaved=12 IEnMin=12 EnMin= -1130.32455102940     IErMin=12 ErrMin= 9.70D-08
 ErrMax= 9.70D-08  0.00D+00 EMaxC= 1.00D+00 BMatC= 6.14D-12 BMatP= 4.44D-11
 IDIUse=1 WtCom= 1.00D+00 WtEn= 0.00D+00
 Coeff-Com:  0.488D-06 0.324D-06-0.537D-05-0.108D-03-0.443D-03-0.845D-03
 Coeff-Com: -0.288D-02-0.147D-02 0.262D-01 0.899D-01 0.321D+00 0.568D+00
 Coeff:      0.488D-06 0.324D-06-0.537D-05-0.108D-03-0.443D-03-0.845D-03
 Coeff:     -0.288D-02-0.147D-02 0.262D-01 0.899D-01 0.321D+00 0.568D+00
 Gap=     0.173 Goal=   None    Shift=    0.000
 RMSDP=1.97D-07 MaxDP=1.78D-05 DE=-4.96D-11 OVMax= 6.36D-07

 Cycle  13  Pass 1  IDiag  1:
 RMSU=  8.07D-08    CP:  1.02D+00  1.32D-01  9.27D-01  6.29D-01  6.99D-01
                    CP:  7.16D-01  7.33D-01  8.47D-01  8.90D-01  7.81D-01
                    CP:  7.54D-01  7.77D-01
 E= -1130.32455102944     Delta-E=       -0.000000000039 Rises=F Damp=F
 DIIS: error= 1.09D-08 at cycle  13 NSaved=  13.
 NSaved=13 IEnMin=13 EnMin= -1130.32455102944     IErMin=13 ErrMin= 1.09D-08
 ErrMax= 1.09D-08  0.00D+00 EMaxC= 1.00D+00 BMatC= 1.22D-13 BMatP= 6.14D-12
 IDIUse=1 WtCom= 1.00D+00 WtEn= 0.00D+00
 Coeff-Com:  0.607D-07 0.241D-06 0.619D-05-0.112D-04-0.698D-04-0.190D-03
 Coeff-Com: -0.103D-02-0.128D-02-0.120D-02 0.991D-02 0.590D-01 0.177D+00
 Coeff-Com:  0.758D+00
 Coeff:      0.607D-07 0.241D-06 0.619D-05-0.112D-04-0.698D-04-0.190D-03
 Coeff:     -0.103D-02-0.128D-02-0.120D-02 0.991D-02 0.590D-01 0.177D+00
 Coeff:      0.758D+00
 Gap=     0.173 Goal=   None    Shift=    0.000
 RMSDP=4.92D-08 MaxDP=4.43D-06 DE=-3.87D-11 OVMax= 9.72D-08

 Cycle  14  Pass 1  IDiag  1:
 RMSU=  1.53D-08    CP:  1.02D+00  1.32D-01  9.27D-01  6.29D-01  6.99D-01
                    CP:  7.16D-01  7.33D-01  8.48D-01  8.89D-01  7.91D-01
                    CP:  7.71D-01  7.29D-01  6.98D-01
 E= -1130.32455102945     Delta-E=       -0.000000000014 Rises=F Damp=F
 DIIS: error= 5.30D-09 at cycle  14 NSaved=  14.
 NSaved=14 IEnMin=14 EnMin= -1130.32455102945     IErMin=14 ErrMin= 5.30D-09
 ErrMax= 5.30D-09  0.00D+00 EMaxC= 1.00D+00 BMatC= 2.04D-14 BMatP= 1.22D-13
 IDIUse=1 WtCom= 1.00D+00 WtEn= 0.00D+00
 Coeff-Com: -0.190D-09 0.908D-07 0.348D-05 0.243D-05-0.241D-05-0.325D-04
 Coeff-Com: -0.297D-03-0.530D-03-0.244D-02-0.169D-02 0.529D-02 0.436D-01
 Coeff-Com:  0.356D+00 0.600D+00
 Coeff:     -0.190D-09 0.908D-07 0.348D-05 0.243D-05-0.241D-05-0.325D-04
 Coeff:     -0.297D-03-0.530D-03-0.244D-02-0.169D-02 0.529D-02 0.436D-01
 Coeff:      0.356D+00 0.600D+00
 Gap=     0.173 Goal=   None    Shift=    0.000
 RMSDP=9.86D-09 MaxDP=6.26D-07 DE=-1.36D-11 OVMax= 2.16D-08

 SCF Done:  E(RB3LYP) =  -1130.32455103     A.U. after   14 cycles
            NFock= 14  Conv=0.99D-08     -V/T= 2.0059
 KE= 1.123675411704D+03 PE=-8.174663882900D+03 EE= 3.143024288677D+03
 Leave Link  502 at Mon Jul 28 18:53:02 2025, MaxMem=  1073741824 cpu:            2180.0 elap:             273.4
 (Enter /app/gaussian/g16/l701.exe)
 ... and contract with generalized density number  0.
 Compute integral first derivatives.
 Leave Link  701 at Mon Jul 28 18:53:02 2025, MaxMem=  1073741824 cpu:               1.9 elap:               0.3
 (Enter /app/gaussian/g16/l702.exe)
 L702 exits ... SP integral derivatives will be done elsewhere.
 Leave Link  702 at Mon Jul 28 18:53:02 2025, MaxMem=  1073741824 cpu:               0.1 elap:               0.0
 (Enter /app/gaussian/g16/l703.exe)
 Integral derivatives from FoFJK, PRISM(SPDF).
 Compute integral first derivatives, UseDBF=F ICtDFT=           0.
 Calling FoFJK, ICntrl=      2127 FMM=T ISym2X=0 I1Cent= 0 IOpClX= 0 NMat=1 NMatS=1 NMatT=0.
 FoFJK:  IHMeth= 1 ICntrl=    2127 DoSepK=F KAlg= 0 I1Cent=           0 FoldK=F
 IRaf=         0 NMat=       1 IRICut=       1 DoRegI=T DoRafI=F ISym2E= 0 IDoP0=0 IntGTp=1.
 FoFCou: FMM=T IPFlag=           0 FMFlag=      100000 FMFlg1=        2001
         NFxFlg=           0 DoJE=F BraDBF=F KetDBF=F FulRan=T
         wScrn=  0.000000 ICntrl=      2127 IOpCl=  0 I1Cent=           0 NGrid=           0
         NMat0=    1 NMatS0=      1 NMatT0=    0 NMatD0=    1 NMtDS0=    0 NMtDT0=    0
 Symmetry not used in FoFCou.
 FMM levels:  10  Number of levels for PrismC:   9
 Leave Link  703 at Mon Jul 28 18:53:52 2025, MaxMem=  1073741824 cpu:             399.2 elap:              50.1
 (Enter /app/gaussian/g16/l716.exe)
 Dipole        =-2.19690492D-01 9.18428015D-01 1.39713111D-01
 ***** Axes restored to original set *****
 -------------------------------------------------------------------
 Center     Atomic                   Forces (Hartrees/Bohr)
 Number     Number              X              Y              Z
 -------------------------------------------------------------------
      1        6          -0.000661392    0.000451253   -0.000843021
      2        6           0.000392629   -0.000808659    0.000417072
      3        6          -0.000578376    0.000715321   -0.000632161
      4        6          -0.000018826   -0.000468705   -0.000083889
      5        6          -0.000983168   -0.000519584   -0.000603707
      6        6           0.000923001   -0.000484389    0.001326391
      7        6           0.000451428   -0.000129843   -0.000203747
      8        6          -0.000103903    0.001028861   -0.000375964
      9        6           0.001330064   -0.000021135    0.000753013
     10        6          -0.001363852    0.000292399   -0.000172048
     11        6           0.001485141    0.001078673   -0.000405907
     12        6           0.001252446    0.000301760    0.001301129
     13        8          -0.000999097   -0.000682948   -0.000595049
     14        6          -0.000400002   -0.000162809   -0.001305518
     15        6          -0.000525790   -0.000678772    0.000396823
     16        6          -0.000759744    0.000114932    0.000419374
     17        6          -0.000106174    0.000273210   -0.000049860
     18        6           0.000384558   -0.001125383    0.000182667
     19        6          -0.000702368    0.000761162    0.000884389
     20        6           0.000739684    0.000902022   -0.001018440
     21        6          -0.000337543    0.000633332    0.001142079
     22        6          -0.000201717   -0.000524819   -0.000903056
     23        6           0.001223884   -0.000893041   -0.000757294
     24        6          -0.000347792    0.000188820    0.000472482
     25        6           0.000139287   -0.000202697   -0.000094406
     26        6          -0.000093862    0.000232450    0.000217531
     27        6           0.000191468    0.000087655   -0.000012125
     28        6          -0.000335605   -0.000705319    0.000066329
     29        1          -0.000089344    0.000032338    0.000093972
     30        1          -0.000297032   -0.000189408   -0.000036305
     31        1          -0.000702379    0.000322247   -0.000019513
     32        1          -0.000069887    0.000390380   -0.000136507
     33        1           0.000246412    0.000365358   -0.000153672
     34        1           0.000188285   -0.000212083    0.000066595
     35        1           0.000350058   -0.000249096    0.000480789
     36        1          -0.000088150   -0.000018235    0.000335489
     37        1           0.000267105   -0.000068205   -0.000279309
     38        1          -0.000165391    0.000017219    0.000126702
     39        1          -0.000336659   -0.000406464    0.000122548
     40        1          -0.000019995   -0.000206883    0.000520794
     41        1          -0.000461150   -0.000837572   -0.000394928
     42        1          -0.000019721    0.000312740    0.000368739
     43        1           0.000192586    0.000147014    0.000304977
     44        1           0.000130125    0.000179346   -0.000080490
     45        1          -0.000214568    0.000118422   -0.000081619
     46        1           0.000237917    0.000187135    0.000088632
     47        1          -0.000126663    0.000411280   -0.001068256
     48        1           0.000166270    0.000114175   -0.000217874
     49        1          -0.000032749    0.000037507   -0.000215212
     50        1          -0.000108930    0.000131053    0.000112273
     51        1          -0.000045833   -0.000362768    0.000177672
     52        1           0.000166206    0.000041300    0.000012394
     53        1          -0.001853149    0.000007812    0.001043747
     54        1          -0.000000347    0.000142025   -0.000111724
     55        1           0.000459349    0.000409270   -0.000201129
     56        1           0.000386360    0.000109442    0.000075443
     57        1           0.001237188   -0.000057082    0.001069381
     58        1           0.000010939    0.000448134   -0.000299005
     59        1          -0.000117031    0.000326559   -0.000195921
     60        1           0.001101579   -0.001066650   -0.000511818
     61        1          -0.000179842    0.000112787   -0.000109789
     62        1           0.000025441   -0.000129524    0.000082095
     63        1           0.000021510    0.000097343   -0.000208930
     64        1           0.000038098    0.000038218    0.000090544
     65        1          -0.000186367    0.000188473   -0.000010702
     66        1          -0.000128640   -0.000059425   -0.000004853
     67        1           0.000135106   -0.000000753   -0.000017676
     68        1          -0.000112729   -0.000126609    0.000116004
     69        1           0.000093440   -0.000246455   -0.000120192
     70        1           0.000078390   -0.000044744   -0.000272371
     71        1           0.000044843    0.000072157    0.000078405
     72        1          -0.000215032   -0.000131527   -0.000142484
 -------------------------------------------------------------------
 Cartesian Forces:  Max     0.001853149 RMS     0.000511462
 Leave Link  716 at Mon Jul 28 18:53:52 2025, MaxMem=  1073741824 cpu:               0.2 elap:               0.0
 (Enter /app/gaussian/g16/l103.exe)

 GradGradGradGradGradGradGradGradGradGradGradGradGradGradGradGradGradGrad
 Berny optimization.
 Using GEDIIS/GDIIS optimizer.
 FormGI is forming the generalized inverse of G from B-inverse, IUseBI=4.
 Internal  Forces:  Max     0.005334714 RMS     0.000657339
 Search for a local minimum.
 Step number   3 out of a maximum of  432
 All quantities printed in internal units (Hartrees-Bohrs-Radians)
 RMS Force = .65734D-03 SwitMx=.10000D-02 MixMth= 2
 Mixed Optimization -- En-DIIS/RFO-DIIS
 Swapping is turned off.
 Update second derivatives using D2CorX and points    2    3
 DE= -7.53D-04 DEPred=-1.29D-03 R= 5.85D-01
 TightC=F SS=  1.41D+00  RLast= 3.53D-01 DXNew= 8.4853D-01 1.0596D+00
 Trust test= 5.85D-01 RLast= 3.53D-01 DXMaxT set to 8.49D-01
 ITU=  1  1  0
     Eigenvalues ---    0.00224   0.00230   0.00230   0.00233   0.00239
     Eigenvalues ---    0.00246   0.00284   0.00306   0.00334   0.00355
     Eigenvalues ---    0.00359   0.00375   0.00432   0.00492   0.00547
     Eigenvalues ---    0.00624   0.00919   0.01018   0.01200   0.01294
     Eigenvalues ---    0.01707   0.01953   0.01981   0.02116   0.02352
     Eigenvalues ---    0.02409   0.02519   0.02601   0.02778   0.02888
     Eigenvalues ---    0.03005   0.03226   0.03316   0.03484   0.03551
     Eigenvalues ---    0.03585   0.03720   0.03808   0.03968   0.04145
     Eigenvalues ---    0.04212   0.04405   0.04577   0.04624   0.04682
     Eigenvalues ---    0.04708   0.04728   0.04759   0.04805   0.04837
     Eigenvalues ---    0.04873   0.04901   0.04939   0.04993   0.05186
     Eigenvalues ---    0.05283   0.05309   0.05343   0.05355   0.05385
     Eigenvalues ---    0.05418   0.05424   0.05465   0.05476   0.05525
     Eigenvalues ---    0.05547   0.05576   0.05586   0.05592   0.05819
     Eigenvalues ---    0.05878   0.05917   0.05938   0.06350   0.06724
     Eigenvalues ---    0.06917   0.07104   0.07239   0.07387   0.07680
     Eigenvalues ---    0.08001   0.08041   0.08115   0.08173   0.08240
     Eigenvalues ---    0.08290   0.08706   0.08729   0.09063   0.09341
     Eigenvalues ---    0.09759   0.10166   0.10860   0.11115   0.12096
     Eigenvalues ---    0.12133   0.12482   0.12887   0.12915   0.14160
     Eigenvalues ---    0.14560   0.15134   0.15385   0.15794   0.15904
     Eigenvalues ---    0.15977   0.16000   0.16000   0.16000   0.16000
     Eigenvalues ---    0.16000   0.16000   0.16000   0.16000   0.16000
     Eigenvalues ---    0.16000   0.16000   0.16000   0.16000   0.16009
     Eigenvalues ---    0.16278   0.16659   0.17032   0.17143   0.18127
     Eigenvalues ---    0.18331   0.18894   0.19416   0.19648   0.20723
     Eigenvalues ---    0.21801   0.21962   0.22016   0.22542   0.22880
     Eigenvalues ---    0.23434   0.24353   0.24703   0.25670   0.25898
     Eigenvalues ---    0.26249   0.26728   0.26854   0.27140   0.27658
     Eigenvalues ---    0.27887   0.27911   0.27999   0.28096   0.28357
     Eigenvalues ---    0.28485   0.28495   0.28562   0.28654   0.28828
     Eigenvalues ---    0.28955   0.29314   0.29364   0.29472   0.30544
     Eigenvalues ---    0.31006   0.32287   0.33183   0.33257   0.33532
     Eigenvalues ---    0.33648   0.33721   0.33817   0.33892   0.33936
     Eigenvalues ---    0.33952   0.33960   0.33970   0.33987   0.34019
     Eigenvalues ---    0.34054   0.34056   0.34064   0.34098   0.34106
     Eigenvalues ---    0.34108   0.34120   0.34152   0.34178   0.34183
     Eigenvalues ---    0.34190   0.34199   0.34211   0.34211   0.34216
     Eigenvalues ---    0.34218   0.34222   0.34233   0.34260   0.34278
     Eigenvalues ---    0.34342   0.34344   0.34444   0.34476   0.34561
     Eigenvalues ---    0.34653   0.34801   0.35171   0.35277   0.36468
     Eigenvalues ---    0.37700   0.41621   0.52827   0.53207   0.54951
 En-DIIS/RFO-DIIS/Sim-DIIS IScMMF=       -3 using points:     3    2
 RFO step:  Lambda=-1.30893066D-03.
 NNeg= 0 NGDIIS= 2 SimSw=  2.50D-03 Rises=F DC= -7.53D-04 SmlDif=  1.00D-05
 NRisDI= 0 DoIntr=F SqrtH=F CThrHd= 10.0 CDAdj=  3.0
 RMS Error=  0.1278672109D-01 NUsed= 2 OKEnD=T EnDIS=F
 InvSVX:  RCond= 2.05D-02 Info=           0 Equed=N FErr=  3.20D-15 BErr=  5.08D-17
 DidBck=F Rises=F RFO-DIIS coefs:    1.31163   -0.31163
 Iteration  1 RMS(Cart)=  0.11665093 RMS(Int)=  0.00129888
 Iteration  2 RMS(Cart)=  0.00346540 RMS(Int)=  0.00004293
 Iteration  3 RMS(Cart)=  0.00000330 RMS(Int)=  0.00004291
 Iteration  4 RMS(Cart)=  0.00000000 RMS(Int)=  0.00004291
 ITry= 1 IFail=0 DXMaxC= 5.71D-01 DCOld= 1.00D+10 DXMaxT= 8.49D-01 DXLimC= 3.00D+00 Rises=F
 Variable       Old X    -DE/DX   Delta X   Delta X   Delta X     New X
                                 (Linear)    (Quad)   (Total)
    R1        2.92687   0.00026   0.00233   0.00168   0.00401   2.93088
    R2        2.06990   0.00002  -0.00039  -0.00022  -0.00061   2.06929
    R3        2.06774  -0.00034   0.00037  -0.00065  -0.00029   2.06746
    R4        2.07028  -0.00046   0.00039  -0.00092  -0.00053   2.06975
    R5        2.95113   0.00040   0.00185   0.00105   0.00288   2.95401
    R6        2.91376  -0.00017   0.00005  -0.00103  -0.00100   2.91276
    R7        2.95902   0.00197  -0.00095   0.00257   0.00169   2.96071
    R8        2.84841  -0.00064  -0.00135  -0.00201  -0.00333   2.84508
    R9        2.91762  -0.00116  -0.00015  -0.00134  -0.00154   2.91608
   R10        2.09550  -0.00016   0.00051  -0.00043   0.00007   2.09558
   R11        2.90611  -0.00048  -0.00069  -0.00085  -0.00153   2.90458
   R12        2.55677  -0.00007   0.00063  -0.00034   0.00031   2.55708
   R13        2.99284  -0.00293  -0.00023  -0.00808  -0.00832   2.98453
   R14        2.95312  -0.00130   0.00161  -0.00245  -0.00085   2.95227
   R15        2.09765  -0.00025   0.00071  -0.00078  -0.00007   2.09758
   R16        2.94592  -0.00025   0.00152  -0.00050   0.00102   2.94694
   R17        2.90323   0.00093   0.00034   0.00265   0.00297   2.90620
   R18        2.96150   0.00037   0.00285   0.00175   0.00458   2.96607
   R19        2.07167  -0.00024  -0.00016  -0.00054  -0.00070   2.07097
   R20        2.07057   0.00022  -0.00051   0.00015  -0.00036   2.07021
   R21        2.07023  -0.00016  -0.00034  -0.00051  -0.00086   2.06937
   R22        2.55152   0.00021  -0.00005  -0.00045  -0.00049   2.55103
   R23        2.85111  -0.00044  -0.00217  -0.00220  -0.00437   2.84674
   R24        2.76542  -0.00157   0.00030  -0.00449  -0.00417   2.76125
   R25        2.05757  -0.00012   0.00014  -0.00030  -0.00016   2.05741
   R26        2.05379  -0.00008  -0.00020  -0.00033  -0.00052   2.05326
   R27        2.91501   0.00066   0.00217   0.00299   0.00517   2.92019
   R28        2.07029  -0.00034  -0.00027  -0.00074  -0.00102   2.06927
   R29        2.07969  -0.00036   0.00004  -0.00096  -0.00092   2.07877
   R30        2.78369   0.00105   0.00135  -0.00048   0.00087   2.78456
   R31        2.92161  -0.00079  -0.00142  -0.00347  -0.00488   2.91673
   R32        2.07892  -0.00073  -0.00071  -0.00217  -0.00288   2.07604
   R33        1.84855   0.00013   0.00016  -0.00013   0.00002   1.84857
   R34        2.91075  -0.00058  -0.00082  -0.00310  -0.00392   2.90684
   R35        2.07710  -0.00013   0.00056  -0.00018   0.00039   2.07748
   R36        2.07621   0.00005  -0.00048  -0.00029  -0.00078   2.07543
   R37        2.07251  -0.00020  -0.00037  -0.00075  -0.00112   2.07139
   R38        2.07559  -0.00024  -0.00020  -0.00059  -0.00079   2.07479
   R39        2.92425  -0.00024  -0.00103  -0.00225  -0.00330   2.92095
   R40        2.06582   0.00094  -0.00067   0.00161   0.00094   2.06676
   R41        2.07418  -0.00024  -0.00016  -0.00070  -0.00086   2.07333
   R42        2.08184  -0.00020   0.00022  -0.00060  -0.00037   2.08147
   R43        2.07854  -0.00019   0.00008  -0.00058  -0.00051   2.07803
   R44        2.96260  -0.00106  -0.00019  -0.00403  -0.00426   2.95834
   R45        2.07120  -0.00017  -0.00024  -0.00054  -0.00078   2.07042
   R46        2.07352   0.00003   0.00007   0.00003   0.00010   2.07361
   R47        2.96849   0.00006   0.00076  -0.00323  -0.00243   2.96606
   R48        2.06727  -0.00209   0.00056  -0.00427  -0.00370   2.06357
   R49        2.07189  -0.00006  -0.00011  -0.00020  -0.00031   2.07158
   R50        2.94378   0.00293  -0.00137   0.00628   0.00491   2.94869
   R51        2.08829  -0.00043   0.00005  -0.00093  -0.00088   2.08741
   R52        2.94099   0.00280  -0.00127   0.00542   0.00415   2.94514
   R53        2.92899  -0.00056  -0.00008  -0.00219  -0.00226   2.92672
   R54        2.08638  -0.00027  -0.00013  -0.00092  -0.00105   2.08533
   R55        2.91679   0.00035  -0.00063  -0.00043  -0.00106   2.91572
   R56        2.07300  -0.00153   0.00055  -0.00322  -0.00267   2.07033
   R57        2.08434  -0.00041   0.00011  -0.00105  -0.00095   2.08339
   R58        2.91726  -0.00060  -0.00193  -0.00319  -0.00512   2.91214
   R59        2.07863  -0.00012   0.00098  -0.00009   0.00090   2.07952
   R60        2.07136  -0.00128   0.00110  -0.00245  -0.00136   2.07000
   R61        2.92535   0.00009  -0.00090  -0.00083  -0.00173   2.92362
   R62        2.08153  -0.00021   0.00030  -0.00055  -0.00025   2.08129
   R63        2.08346  -0.00005   0.00074  -0.00004   0.00071   2.08417
   R64        2.91722  -0.00059  -0.00112  -0.00299  -0.00411   2.91311
   R65        2.91622  -0.00035  -0.00017  -0.00193  -0.00210   2.91413
   R66        2.08484  -0.00013   0.00076  -0.00028   0.00047   2.08531
   R67        2.07671  -0.00010   0.00049  -0.00020   0.00029   2.07700
   R68        2.07431  -0.00024  -0.00009  -0.00073  -0.00081   2.07350
   R69        2.07375  -0.00013  -0.00015  -0.00050  -0.00065   2.07310
   R70        2.07719  -0.00006   0.00049  -0.00015   0.00035   2.07753
   R71        2.07422  -0.00020   0.00008  -0.00052  -0.00043   2.07379
   R72        2.07152  -0.00025  -0.00006  -0.00070  -0.00076   2.07076
   R73        2.07449  -0.00027  -0.00012  -0.00079  -0.00091   2.07358
   R74        2.07388  -0.00002   0.00018  -0.00009   0.00010   2.07398
   R75        2.07142  -0.00022   0.00032  -0.00043  -0.00010   2.07132
    A1        1.93756  -0.00031  -0.00057  -0.00173  -0.00230   1.93525
    A2        1.95203   0.00024  -0.00177   0.00139  -0.00039   1.95164
    A3        1.94158  -0.00001   0.00023   0.00024   0.00046   1.94204
    A4        1.86985   0.00002   0.00160   0.00010   0.00169   1.87154
    A5        1.87862  -0.00008   0.00247  -0.00171   0.00076   1.87938
    A6        1.88074   0.00014  -0.00177   0.00169  -0.00008   1.88066
    A7        1.93012  -0.00049   0.00217  -0.00492  -0.00278   1.92734
    A8        1.93486  -0.00049   0.00243  -0.00168   0.00074   1.93559
    A9        1.97675   0.00114  -0.00311   0.01100   0.00789   1.98464
   A10        1.86856   0.00014  -0.00091  -0.00283  -0.00377   1.86480
   A11        1.73116  -0.00005  -0.00154  -0.00388  -0.00536   1.72580
   A12        2.00839  -0.00028   0.00078   0.00079   0.00150   2.00989
   A13        1.99762  -0.00041   0.00221  -0.00021   0.00204   1.99966
   A14        1.81718   0.00004   0.00016  -0.00029  -0.00018   1.81700
   A15        1.82196   0.00034  -0.00507   0.00197  -0.00310   1.81886
   A16        2.10914   0.00050  -0.00070   0.00136   0.00064   2.10977
   A17        1.83417  -0.00003   0.00114  -0.00101   0.00014   1.83430
   A18        1.86053  -0.00044   0.00142  -0.00176  -0.00032   1.86021
   A19        2.00619  -0.00008  -0.00081  -0.00027  -0.00118   2.00502
   A20        2.15791   0.00009  -0.00118  -0.00109  -0.00241   2.15549
   A21        2.09931   0.00001  -0.00045   0.00077   0.00011   2.09941
   A22        1.98113   0.00032  -0.00098  -0.00232  -0.00337   1.97776
   A23        1.96401   0.00054  -0.00195  -0.00150  -0.00345   1.96056
   A24        1.83755  -0.00034  -0.00034   0.00062   0.00029   1.83784
   A25        1.96113  -0.00140   0.00326  -0.00642  -0.00315   1.95798
   A26        1.85557   0.00047  -0.00127   0.00513   0.00385   1.85942
   A27        1.85134   0.00051   0.00122   0.00624   0.00745   1.85879
   A28        1.95760  -0.00111   0.00384  -0.00813  -0.00430   1.95331
   A29        1.93183   0.00000  -0.00250  -0.00029  -0.00281   1.92902
   A30        1.92321   0.00034   0.00214   0.00243   0.00453   1.92774
   A31        1.85470   0.00066  -0.00282   0.00359   0.00078   1.85548
   A32        1.90309   0.00017   0.00091   0.00025   0.00113   1.90422
   A33        1.89107  -0.00003  -0.00183   0.00249   0.00067   1.89174
   A34        1.91336   0.00044  -0.00215   0.00318   0.00102   1.91438
   A35        1.95187  -0.00059   0.00012  -0.00318  -0.00307   1.94880
   A36        1.94145  -0.00041  -0.00171  -0.00302  -0.00474   1.93671
   A37        1.87195   0.00022   0.00131   0.00205   0.00335   1.87530
   A38        1.88317   0.00012   0.00108   0.00164   0.00272   1.88589
   A39        1.89949   0.00026   0.00153  -0.00033   0.00119   1.90068
   A40        2.10267  -0.00010  -0.00019   0.00060   0.00024   2.10291
   A41        2.02183  -0.00019  -0.00125  -0.00163  -0.00298   2.01886
   A42        2.15757   0.00030   0.00109   0.00100   0.00200   2.15957
   A43        2.12740  -0.00021  -0.00083  -0.00152  -0.00238   2.12502
   A44        2.09448   0.00025  -0.00031   0.00203   0.00173   2.09621
   A45        2.05942  -0.00002   0.00121  -0.00009   0.00112   2.06053
   A46        2.11995   0.00007   0.00039   0.00039   0.00075   2.12070
   A47        2.09800   0.00006  -0.00119   0.00091  -0.00030   2.09771
   A48        2.05875  -0.00010   0.00115  -0.00054   0.00059   2.05934
   A49        1.94086   0.00013  -0.00310  -0.00089  -0.00400   1.93685
   A50        1.93710   0.00021   0.00151   0.00498   0.00647   1.94357
   A51        1.93264   0.00006  -0.00077  -0.00286  -0.00379   1.92885
   A52        1.93077  -0.00018   0.00480   0.00087   0.00568   1.93646
   A53        1.85540  -0.00040  -0.00564  -0.00405  -0.00978   1.84562
   A54        1.86395   0.00015   0.00327   0.00162   0.00495   1.86890
   A55        1.83056   0.00055  -0.00702   0.00069  -0.00637   1.82420
   A56        1.94780  -0.00009  -0.00084   0.00155   0.00061   1.94842
   A57        1.91984   0.00008   0.00663   0.00628   0.01285   1.93270
   A58        1.95227  -0.00038  -0.00135  -0.00386  -0.00529   1.94698
   A59        1.89609  -0.00030  -0.00098  -0.00586  -0.00674   1.88936
   A60        1.91520   0.00014   0.00344   0.00112   0.00445   1.91965
   A61        1.94478  -0.00059  -0.00339  -0.00718  -0.01057   1.93421
   A62        1.94628   0.00042  -0.00032   0.00006  -0.00026   1.94602
   A63        1.90687  -0.00008   0.00057   0.00313   0.00368   1.91054
   A64        1.90057  -0.00020  -0.00441  -0.00436  -0.00878   1.89178
   A65        1.92915  -0.00009   0.00283   0.00297   0.00578   1.93494
   A66        1.91816  -0.00010   0.00156  -0.00149   0.00002   1.91819
   A67        1.86062   0.00003  -0.00030  -0.00041  -0.00072   1.85990
   A68        1.95532  -0.00000  -0.00165  -0.00328  -0.00498   1.95034
   A69        1.91735   0.00009   0.00075   0.00272   0.00349   1.92084
   A70        1.91297  -0.00011  -0.00073  -0.00060  -0.00131   1.91166
   A71        1.92573  -0.00012   0.00011  -0.00040  -0.00028   1.92546
   A72        1.89389   0.00014   0.00025   0.00080   0.00105   1.89494
   A73        1.85573   0.00001   0.00142   0.00095   0.00236   1.85809
   A74        2.00391  -0.00024  -0.00061  -0.00150  -0.00219   2.00172
   A75        1.91430  -0.00049  -0.00077  -0.00389  -0.00467   1.90963
   A76        1.90181   0.00024   0.00154   0.00282   0.00439   1.90620
   A77        1.88214   0.00050  -0.00200   0.00011  -0.00188   1.88026
   A78        1.90095   0.00004   0.00040   0.00169   0.00209   1.90304
   A79        1.85494  -0.00003   0.00161   0.00095   0.00257   1.85750
   A80        1.93936  -0.00001  -0.00072  -0.00187  -0.00261   1.93675
   A81        1.90005   0.00002  -0.00086   0.00159   0.00072   1.90077
   A82        1.93617   0.00004   0.00068   0.00018   0.00087   1.93703
   A83        1.92176   0.00005   0.00032  -0.00037  -0.00006   1.92170
   A84        1.89973  -0.00009  -0.00059  -0.00008  -0.00065   1.89907
   A85        1.86542  -0.00001   0.00127   0.00064   0.00191   1.86733
   A86        1.81323   0.00030  -0.00007   0.00302   0.00291   1.81614
   A87        1.96139  -0.00037   0.00067  -0.00262  -0.00194   1.95946
   A88        1.92691   0.00020  -0.00116   0.00188   0.00072   1.92764
   A89        1.95970  -0.00025   0.00046  -0.00245  -0.00196   1.95774
   A90        1.93575  -0.00003  -0.00086  -0.00151  -0.00237   1.93337
   A91        1.86812   0.00015   0.00086   0.00164   0.00250   1.87062
   A92        1.85239   0.00074  -0.00019  -0.00262  -0.00278   1.84961
   A93        1.93469  -0.00034   0.00051  -0.00145  -0.00098   1.93371
   A94        1.94054  -0.00040   0.00140  -0.00070   0.00069   1.94122
   A95        1.95410  -0.00015  -0.00413   0.00090  -0.00324   1.95086
   A96        1.92530  -0.00002   0.00115   0.00217   0.00331   1.92861
   A97        1.85835   0.00014   0.00128   0.00171   0.00300   1.86135
   A98        1.80917  -0.00090  -0.00128   0.00274   0.00124   1.81040
   A99        2.10626   0.00069  -0.00556   0.01235   0.00648   2.11275
   A100       1.81117   0.00001   0.00317  -0.00873  -0.00553   1.80564
   A101       2.05535   0.00154  -0.00352   0.01767   0.01388   2.06923
   A102       1.84880  -0.00058   0.00457  -0.01671  -0.01210   1.83670
   A103       1.80366  -0.00110   0.00551  -0.01585  -0.01016   1.79350
   A104       2.09605   0.00533  -0.00528   0.02777   0.02250   2.11855
   A105       1.90874  -0.00197   0.00021  -0.00011  -0.00009   1.90865
   A106       1.83043  -0.00121   0.00199  -0.01011  -0.00803   1.82240
   A107       1.92755  -0.00194   0.00008  -0.00142  -0.00156   1.92598
   A108       1.82637  -0.00139   0.00057  -0.01365  -0.01302   1.81335
   A109       1.85589   0.00090   0.00383  -0.00801  -0.00423   1.85166
   A110       2.07168   0.00504  -0.00318   0.01590   0.01266   2.08434
   A111       1.91338  -0.00111  -0.00111   0.00432   0.00309   1.91647
   A112       1.84677  -0.00159   0.00021  -0.00951  -0.00924   1.83753
   A113       1.89660  -0.00145  -0.00043   0.00260   0.00204   1.89865
   A114       1.87849  -0.00188   0.00168  -0.01208  -0.01036   1.86813
   A115       1.84310   0.00056   0.00385  -0.00423  -0.00037   1.84273
   A116       1.95192  -0.00049  -0.00186  -0.00351  -0.00537   1.94655
   A117       1.91956   0.00031  -0.00008   0.00289   0.00281   1.92237
   A118       1.92034   0.00054   0.00105   0.00334   0.00438   1.92472
   A119       1.89794   0.00004   0.00059  -0.00009   0.00050   1.89844
   A120       1.90900  -0.00034   0.00220  -0.00302  -0.00081   1.90819
   A121       1.86280  -0.00005  -0.00189   0.00052  -0.00138   1.86142
   A122       2.00988  -0.00001  -0.00134  -0.00169  -0.00303   2.00685
   A123       1.89502  -0.00006   0.00066  -0.00030   0.00036   1.89537
   A124       1.90833   0.00003   0.00040   0.00075   0.00116   1.90949
   A125       1.89187   0.00004   0.00064   0.00055   0.00119   1.89306
   A126       1.89714   0.00005   0.00007   0.00159   0.00166   1.89880
   A127       1.85546  -0.00006  -0.00037  -0.00088  -0.00125   1.85420
   A128       1.92685   0.00011  -0.00049  -0.00012  -0.00062   1.92624
   A129       1.96197   0.00010  -0.00077   0.00014  -0.00064   1.96134
   A130       1.87628  -0.00002  -0.00033   0.00125   0.00093   1.87721
   A131       1.92851  -0.00020   0.00046  -0.00135  -0.00089   1.92762
   A132       1.88224   0.00001   0.00110   0.00035   0.00144   1.88368
   A133       1.88500   0.00000   0.00012  -0.00018  -0.00006   1.88494
   A134       1.93154  -0.00000  -0.00048   0.00005  -0.00043   1.93111
   A135       1.94254  -0.00015  -0.00053  -0.00126  -0.00179   1.94074
   A136       1.94021   0.00002  -0.00112  -0.00067  -0.00180   1.93841
   A137       1.88188   0.00006   0.00029   0.00044   0.00073   1.88261
   A138       1.88127  -0.00001   0.00030   0.00030   0.00060   1.88186
   A139       1.88400   0.00009   0.00165   0.00125   0.00290   1.88691
   A140       1.92968  -0.00001  -0.00094  -0.00011  -0.00105   1.92863
   A141       1.93425  -0.00002  -0.00007  -0.00017  -0.00024   1.93402
   A142       1.95623  -0.00014  -0.00100  -0.00164  -0.00264   1.95358
   A143       1.88028   0.00001   0.00009   0.00022   0.00031   1.88060
   A144       1.88340   0.00008   0.00006   0.00059   0.00064   1.88403
   A145       1.87719   0.00009   0.00198   0.00122   0.00320   1.88040
   A146       1.93652  -0.00012  -0.00040  -0.00096  -0.00136   1.93516
   A147       1.93136   0.00024  -0.00028   0.00128   0.00100   1.93236
   A148       1.95352  -0.00028  -0.00107  -0.00195  -0.00301   1.95051
   A149       1.88181  -0.00002   0.00145   0.00065   0.00210   1.88391
   A150       1.87744   0.00015   0.00061   0.00073   0.00134   1.87878
   A151       1.88035   0.00004  -0.00019   0.00035   0.00016   1.88051
    D1       -0.77718   0.00028   0.00354   0.02958   0.03313  -0.74404
    D2        1.29258  -0.00017   0.00530   0.02184   0.02715   1.31973
    D3       -2.70246  -0.00001   0.00586   0.03112   0.03696  -2.66550
    D4        1.31030   0.00025   0.00399   0.02945   0.03346   1.34376
    D5       -2.90312  -0.00020   0.00575   0.02172   0.02747  -2.87565
    D6       -0.61499  -0.00003   0.00631   0.03100   0.03729  -0.57770
    D7       -2.86878   0.00059   0.00066   0.03274   0.03341  -2.83537
    D8       -0.79901   0.00013   0.00241   0.02501   0.02742  -0.77159
    D9        1.48912   0.00030   0.00297   0.03428   0.03724   1.52636
   D10        1.08824  -0.00072   0.00617  -0.00836  -0.00220   1.08605
   D11       -1.25119  -0.00110   0.00524  -0.00978  -0.00452  -1.25571
   D12        3.08363  -0.00076   0.00552  -0.00847  -0.00295   3.08068
   D13       -1.02141   0.00008   0.00253  -0.00169   0.00084  -1.02057
   D14        2.92234  -0.00030   0.00161  -0.00311  -0.00148   2.92086
   D15        0.97398   0.00004   0.00188  -0.00180   0.00008   0.97406
   D16       -3.11427   0.00036   0.00269   0.00020   0.00291  -3.11135
   D17        0.82948  -0.00002   0.00177  -0.00123   0.00059   0.83007
   D18       -1.11888   0.00032   0.00205   0.00009   0.00216  -1.11672
   D19       -1.07781   0.00072  -0.00426   0.01420   0.00992  -1.06789
   D20        3.08604   0.00065  -0.00362   0.01479   0.01118   3.09722
   D21        1.03808   0.00063  -0.00504   0.01294   0.00790   1.04599
   D22        1.02882  -0.00008  -0.00078   0.00545   0.00462   1.03345
   D23       -1.09051  -0.00015  -0.00015   0.00604   0.00588  -1.08463
   D24       -3.13846  -0.00017  -0.00157   0.00419   0.00260  -3.13586
   D25        2.93379  -0.00019  -0.00281  -0.00056  -0.00338   2.93041
   D26        0.81445  -0.00026  -0.00217   0.00004  -0.00212   0.81233
   D27       -1.23350  -0.00029  -0.00359  -0.00181  -0.00540  -1.23890
   D28        1.30775   0.00049  -0.00516  -0.00581  -0.01099   1.29675
   D29       -1.04061  -0.00148   0.00702  -0.04642  -0.03941  -1.08002
   D30       -3.04671  -0.00045   0.00045  -0.02609  -0.02563  -3.07233
   D31       -0.73795   0.00063  -0.00554  -0.00233  -0.00788  -0.74582
   D32       -3.08630  -0.00134   0.00664  -0.04293  -0.03629  -3.12260
   D33        1.19079  -0.00031   0.00008  -0.02261  -0.02251   1.16827
   D34       -2.72440   0.00060  -0.00388   0.00294  -0.00093  -2.72533
   D35        1.21043  -0.00137   0.00830  -0.03767  -0.02935   1.18108
   D36       -0.79567  -0.00034   0.00174  -0.01734  -0.01556  -0.81123
   D37        0.87867  -0.00000   0.00002   0.00048   0.00050   0.87917
   D38       -2.47543   0.00009  -0.01469  -0.00250  -0.01715  -2.49258
   D39        3.07270   0.00011   0.00191   0.00116   0.00303   3.07573
   D40       -0.28140   0.00020  -0.01280  -0.00181  -0.01462  -0.29602
   D41       -1.10955  -0.00018   0.00432  -0.00116   0.00315  -1.10640
   D42        1.81954  -0.00008  -0.01039  -0.00414  -0.01451   1.80503
   D43       -0.59239  -0.00038   0.00318   0.00041   0.00362  -0.58878
   D44       -2.71501  -0.00007   0.00230   0.00289   0.00520  -2.70981
   D45        1.48391  -0.00015   0.00157   0.00125   0.00282   1.48673
   D46       -2.86734  -0.00024   0.00044  -0.00014   0.00033  -2.86700
   D47        1.29323   0.00007  -0.00043   0.00234   0.00192   1.29515
   D48       -0.79103  -0.00001  -0.00117   0.00070  -0.00046  -0.79149
   D49        1.32786  -0.00016  -0.00184   0.00180  -0.00002   1.32785
   D50       -0.79476   0.00016  -0.00271   0.00428   0.00157  -0.79319
   D51       -2.87902   0.00007  -0.00345   0.00265  -0.00081  -2.87983
   D52       -2.95621   0.00069  -0.00571   0.01023   0.00449  -2.95172
   D53       -0.70427  -0.00051  -0.00374  -0.00220  -0.00593  -0.71020
   D54        1.30449   0.00016  -0.00346   0.00486   0.00140   1.30589
   D55        0.39015   0.00059   0.00853   0.01334   0.02185   0.41200
   D56        2.64209  -0.00061   0.01050   0.00091   0.01144   2.65352
   D57       -1.63234   0.00006   0.01079   0.00797   0.01877  -1.61357
   D58       -2.86708  -0.00050   0.00704  -0.00932  -0.00232  -2.86941
   D59        0.14991  -0.00016   0.01030  -0.00208   0.00819   0.15810
   D60        0.05121  -0.00041  -0.00845  -0.01259  -0.02106   0.03015
   D61        3.06820  -0.00007  -0.00519  -0.00535  -0.01054   3.05766
   D62        1.40704   0.00012  -0.01122  -0.00700  -0.01821   1.38884
   D63       -0.66110   0.00001  -0.00852  -0.00604  -0.01455  -0.67565
   D64       -2.75251  -0.00017  -0.00603  -0.01052  -0.01651  -2.76902
   D65       -0.84636   0.00034  -0.01055   0.00291  -0.00765  -0.85401
   D66       -2.91450   0.00023  -0.00785   0.00386  -0.00400  -2.91849
   D67        1.27727   0.00004  -0.00536  -0.00061  -0.00596   1.27131
   D68       -2.86431   0.00017  -0.01295  -0.00430  -0.01726  -2.88157
   D69        1.35073   0.00006  -0.01025  -0.00334  -0.01360   1.33713
   D70       -0.74068  -0.00013  -0.00776  -0.00782  -0.01556  -0.75625
   D71        0.74397   0.00020   0.00715   0.00617   0.01334   0.75732
   D72       -1.37817   0.00009   0.01079   0.01006   0.02086  -1.35731
   D73        2.88114   0.00026   0.00842   0.00949   0.01791   2.89905
   D74        3.00624  -0.00011   0.00695  -0.00402   0.00294   3.00918
   D75        0.88410  -0.00022   0.01060  -0.00014   0.01046   0.89456
   D76       -1.13978  -0.00005   0.00822  -0.00071   0.00751  -1.13227
   D77       -1.25643   0.00003   0.00782   0.00252   0.01037  -1.24606
   D78        2.90461  -0.00008   0.01147   0.00641   0.01788   2.92249
   D79        0.88074   0.00009   0.00909   0.00584   0.01494   0.89567
   D80       -2.94621  -0.00009   0.00662  -0.01677  -0.01014  -2.95634
   D81        1.26309  -0.00028   0.00633  -0.01941  -0.01305   1.25004
   D82       -0.86489   0.00010   0.00549  -0.01457  -0.00907  -0.87396
   D83       -0.83303  -0.00030   0.00400  -0.01956  -0.01558  -0.84860
   D84       -2.90692  -0.00050   0.00370  -0.02219  -0.01850  -2.92541
   D85        1.24829  -0.00012   0.00286  -0.01736  -0.01451   1.23378
   D86        1.20188   0.00010   0.00080  -0.01461  -0.01381   1.18806
   D87       -0.87202  -0.00010   0.00051  -0.01724  -0.01673  -0.88874
   D88       -2.99999   0.00028  -0.00033  -0.01241  -0.01274  -3.01274
   D89        0.56913  -0.00040   0.01041   0.00042   0.01082   0.57995
   D90       -2.62135  -0.00027  -0.00307  -0.00015  -0.00318  -2.62452
   D91       -1.56052   0.00054   0.00897   0.00822   0.01718  -1.54335
   D92        1.53219   0.00067  -0.00450   0.00766   0.00318   1.53536
   D93        2.67972   0.00001   0.01032   0.00482   0.01511   2.69483
   D94       -0.51076   0.00014  -0.00315   0.00425   0.00111  -0.50964
   D95        1.55166   0.00032  -0.00484  -0.00166  -0.00653   1.54513
   D96       -0.59522   0.00041  -0.00438  -0.00082  -0.00521  -0.60043
   D97       -2.62818   0.00041  -0.00611  -0.00319  -0.00932  -2.63750
   D98       -2.57584  -0.00074   0.00191  -0.01007  -0.00817  -2.58401
   D99        1.56046  -0.00065   0.00238  -0.00923  -0.00685   1.55362
   D100      -0.47249  -0.00064   0.00064  -0.01161  -0.01096  -0.48345
   D101      -0.56426   0.00012  -0.00193  -0.00435  -0.00628  -0.57054
   D102      -2.71114   0.00021  -0.00147  -0.00351  -0.00496  -2.71610
   D103       1.53909   0.00022  -0.00320  -0.00589  -0.00908   1.53001
   D104      -0.15155   0.00046  -0.01110   0.00136  -0.00974  -0.16130
   D105       3.05741   0.00013  -0.01244  -0.00614  -0.01861   3.03880
   D106       3.04287   0.00033   0.00347   0.00205   0.00558   3.04845
   D107      -0.03135   0.00000   0.00213  -0.00545  -0.00328  -0.03463
   D108       1.09870  -0.00030   0.00798  -0.00345   0.00453   1.10323
   D109      -3.02714  -0.00028   0.01304   0.00063   0.01368  -3.01346
   D110      -0.96009   0.00008   0.01758   0.00399   0.02155  -0.93853
   D111      -2.09349  -0.00017  -0.00597  -0.00406  -0.01004  -2.10353
   D112       0.06386  -0.00016  -0.00091   0.00002  -0.00089   0.06297
   D113       2.13091   0.00020   0.00363   0.00338   0.00699   2.13790
   D114      -0.19573   0.00021   0.00992   0.00577   0.01569  -0.18004
   D115       3.06776  -0.00013   0.00690  -0.00141   0.00546   3.07321
   D116       2.87979   0.00054   0.01118   0.01321   0.02441   2.90420
   D117      -0.13991   0.00021   0.00816   0.00602   0.01418  -0.12573
   D118      -2.61627   0.00008  -0.00028   0.00248   0.00213  -2.61415
   D119      -0.49916  -0.00009  -0.00691  -0.00090  -0.00787  -0.50703
   D120       1.63088   0.00009   0.00137   0.00594   0.00733   1.63821
   D121       1.50596  -0.00016  -0.00347  -0.00393  -0.00746   1.49850
   D122      -2.66011  -0.00033  -0.01011  -0.00731  -0.01745  -2.67756
   D123      -0.53007  -0.00014  -0.00182  -0.00047  -0.00226  -0.53233
   D124      -0.51134  -0.00002  -0.00668  -0.00402  -0.01069  -0.52202
   D125       1.60578  -0.00019  -0.01331  -0.00741  -0.02068   1.58510
   D126      -2.54737  -0.00001  -0.00503  -0.00057  -0.00548  -2.55285
   D127      -3.04137   0.00013   0.00164   0.01060   0.01227  -3.02911
   D128       1.12764   0.00010   0.00799   0.01043   0.01836   1.14600
   D129      -0.98908   0.00036   0.00520   0.01543   0.02065  -0.96844
   D130      -0.53689  -0.00014   0.00206  -0.00179   0.00028  -0.53660
   D131      -2.67461  -0.00026  -0.00169  -0.00774  -0.00942  -2.68403
   D132       1.58272  -0.00013   0.00082  -0.00655  -0.00570   1.57702
   D133       1.50794   0.00025  -0.00830  -0.00242  -0.01072   1.49722
   D134      -0.62978   0.00013  -0.01205  -0.00838  -0.02043  -0.65021
   D135      -2.65564   0.00026  -0.00954  -0.00719  -0.01671  -2.67235
   D136      -2.66960  -0.00029  -0.00807  -0.01157  -0.01966  -2.68926
   D137       1.47586  -0.00040  -0.01183  -0.01753  -0.02936   1.44650
   D138      -0.55000  -0.00028  -0.00931  -0.01634  -0.02564  -0.57564
   D139       1.12972  -0.00002   0.00253   0.00243   0.00496   1.13468
   D140      -3.01133   0.00001   0.00242   0.00335   0.00575  -3.00557
   D141      -0.98467   0.00003   0.00433   0.00472   0.00905  -0.97562
   D142      -3.02860   0.00011   0.00499   0.00853   0.01353  -3.01507
   D143      -0.88646   0.00013   0.00488   0.00944   0.01432  -0.87213
   D144       1.14020   0.00016   0.00679   0.01082   0.01762   1.15782
   D145      -0.97964   0.00003   0.00725   0.00890   0.01616  -0.96348
   D146       1.16251   0.00005   0.00714   0.00982   0.01695   1.17946
   D147      -3.09402   0.00008   0.00905   0.01119   0.02025  -3.07377
   D148      -0.94104   0.00017  -0.00549  -0.00887  -0.01435  -0.95539
   D149       1.16554   0.00022  -0.00683  -0.00835  -0.01519   1.15035
   D150      -3.07817   0.00019  -0.00547  -0.00783  -0.01330  -3.09147
   D151       1.19852  -0.00025  -0.00843  -0.01484  -0.02325   1.17527
   D152      -2.97809  -0.00020  -0.00977  -0.01432  -0.02409  -3.00218
   D153      -0.93861  -0.00024  -0.00840  -0.01379  -0.02220  -0.96081
   D154      -3.07867   0.00000  -0.00738  -0.01280  -0.02015  -3.09883
   D155      -0.97210   0.00005  -0.00872  -0.01227  -0.02099  -0.99309
   D156       1.06738   0.00002  -0.00735  -0.01175  -0.01910   1.04828
   D157       0.11777   0.00038  -0.00662  -0.00251  -0.00915   0.10862
   D158       2.24337   0.00047  -0.01147  -0.00389  -0.01538   2.22800
   D159      -1.97623   0.00017  -0.00867  -0.00314  -0.01182  -1.98805
   D160       2.24152  -0.00001  -0.00561  -0.00510  -0.01072   2.23080
   D161      -1.91606   0.00008  -0.01046  -0.00649  -0.01695  -1.93301
   D162       0.14752  -0.00022  -0.00766  -0.00573  -0.01339   0.13413
   D163      -1.95248  -0.00002  -0.00479  -0.00570  -0.01049  -1.96297
   D164       0.17313   0.00007  -0.00964  -0.00709  -0.01672   0.15641
   D165       2.23671  -0.00023  -0.00684  -0.00633  -0.01317   2.22354
   D166       0.39447  -0.00054   0.00805   0.00371   0.01177   0.40624
   D167       2.77097   0.00094  -0.00481   0.04019   0.03542   2.80639
   D168      -1.50641   0.00000   0.00345   0.01817   0.02161  -1.48480
   D169      -1.71868  -0.00051   0.00998   0.00665   0.01662  -1.70206
   D170       0.65781   0.00097  -0.00288   0.04314   0.04027   0.69809
   D171       2.66363   0.00003   0.00538   0.02112   0.02645   2.69008
   D172       2.49837  -0.00058   0.01025   0.00250   0.01276   2.51113
   D173      -1.40833   0.00090  -0.00261   0.03899   0.03641  -1.37191
   D174       0.59749  -0.00004   0.00565   0.01697   0.02259   0.62008
   D175       1.06149   0.00053   0.00954  -0.00775   0.00185   1.06334
   D176      -2.96739   0.00056   0.00490   0.01574   0.02080  -2.94660
   D177      -0.98311   0.00011   0.01037   0.00142   0.01191  -0.97120
   D178      -1.18134  -0.00062   0.02267  -0.04714  -0.02463  -1.20597
   D179       1.07297  -0.00059   0.01803  -0.02365  -0.00569   1.06727
   D180       3.05725  -0.00104   0.02350  -0.03797  -0.01458   3.04267
   D181       3.07146   0.00007   0.01493  -0.02442  -0.00955   3.06191
   D182      -0.95742   0.00010   0.01028  -0.00094   0.00939  -0.94803
   D183       1.02686  -0.00035   0.01575  -0.01525   0.00051   1.02737
   D184       1.15651   0.00050   0.00228   0.05193   0.05430   1.21081
   D185      -1.03627  -0.00061   0.00663   0.03103   0.03769  -0.99858
   D186      -3.01617   0.00006   0.00257   0.03880   0.04143  -2.97474
   D187      -1.08936   0.00044   0.00695   0.02742   0.03437  -1.05499
   D188       3.00103  -0.00067   0.01130   0.00652   0.01777   3.01881
   D189       1.02114  -0.00000   0.00724   0.01429   0.02151   1.04265
   D190      -3.07999   0.00100   0.00218   0.04452   0.04669  -3.03330
   D191       1.01041  -0.00011   0.00653   0.02362   0.03009   1.04050
   D192      -0.96949   0.00056   0.00247   0.03139   0.03382  -0.93566
   D193       0.94554  -0.00195  -0.00141  -0.01799  -0.01935   0.92619
   D194       3.03372  -0.00190  -0.00004  -0.01695  -0.01694   3.01678
   D195      -1.15189  -0.00188  -0.00119  -0.01694  -0.01808  -1.16996
   D196      -2.99399   0.00198  -0.00842   0.01868   0.01021  -2.98378
   D197      -0.90580   0.00203  -0.00705   0.01971   0.01261  -0.89319
   D198       1.19177   0.00206  -0.00820   0.01972   0.01147   1.20325
   D199      -1.02216  -0.00009  -0.00571  -0.00219  -0.00791  -1.03007
   D200       1.06602  -0.00004  -0.00434  -0.00116  -0.00550   1.06052
   D201      -3.11958  -0.00002  -0.00549  -0.00115  -0.00664  -3.12623
   D202       2.99969  -0.00063  -0.00314  -0.05030  -0.05347   2.94622
   D203       0.88898  -0.00057  -0.00260  -0.04984  -0.05246   0.83652
   D204      -1.15820  -0.00101  -0.00087  -0.05420  -0.05509  -1.21330
   D205      -1.08265   0.00059  -0.00775  -0.02885  -0.03659  -1.11924
   D206       3.08982   0.00066  -0.00720  -0.02839  -0.03558   3.05424
   D207       1.04264   0.00021  -0.00548  -0.03275  -0.03822   1.00442
   D208       0.90539  -0.00043  -0.00263  -0.03867  -0.04128   0.86410
   D209      -1.20532  -0.00037  -0.00208  -0.03820  -0.04027  -1.24559
   D210       3.03068  -0.00081  -0.00035  -0.04256  -0.04291   2.98777
   D211      -3.06601   0.00003  -0.00016  -0.00104  -0.00120  -3.06721
   D212      -0.94172   0.00004   0.00025  -0.00171  -0.00146  -0.94318
   D213       1.07571  -0.00006   0.00039  -0.00251  -0.00212   1.07359
   D214      -0.94280   0.00013  -0.00106   0.00027  -0.00079  -0.94360
   D215       1.18149   0.00014  -0.00065  -0.00040  -0.00105   1.18044
   D216      -3.08426   0.00004  -0.00051  -0.00121  -0.00172  -3.08598
   D217       1.08537  -0.00009  -0.00178  -0.00083  -0.00261   1.08276
   D218      -3.07352  -0.00008  -0.00136  -0.00150  -0.00287  -3.07639
   D219      -1.05609  -0.00018  -0.00123  -0.00230  -0.00353  -1.05962
   D220       3.01661  -0.00002  -0.00208  -0.00882  -0.01090   3.00571
   D221      -1.10443  -0.00013  -0.00242  -0.01057  -0.01298  -1.11741
   D222       0.96772  -0.00008  -0.00293  -0.00990  -0.01283   0.95488
   D223       0.89062   0.00003  -0.00250  -0.00770  -0.01020   0.88042
   D224       3.05277  -0.00008  -0.00284  -0.00944  -0.01228   3.04048
   D225      -1.15828  -0.00003  -0.00336  -0.00878  -0.01214  -1.17041
   D226      -1.11914   0.00006  -0.00244  -0.00779  -0.01023  -1.12937
   D227       1.04300  -0.00006  -0.00278  -0.00953  -0.01231   1.03069
   D228       3.11515  -0.00001  -0.00329  -0.00887  -0.01217   3.10298
   D229       1.09756  -0.00001   0.00046  -0.00097  -0.00051   1.09705
   D230      -0.99476   0.00002   0.00076  -0.00073   0.00003  -0.99473
   D231      -3.09560  -0.00001  -0.00022  -0.00100  -0.00122  -3.09682
   D232      -1.08376  -0.00007   0.00148  -0.00010   0.00138  -1.08238
   D233       3.10710  -0.00004   0.00178   0.00015   0.00193   3.10903
   D234       1.00626  -0.00007   0.00080  -0.00013   0.00067   1.00693
   D235      -3.14040   0.00004   0.00043   0.00067   0.00110  -3.13930
   D236       1.05046   0.00007   0.00073   0.00091   0.00165   1.05211
   D237      -1.05038   0.00004  -0.00025   0.00064   0.00039  -1.04999
   D238      -1.01361  -0.00007  -0.00534  -0.01081  -0.01616  -1.02977
   D239      -3.09732  -0.00006  -0.00480  -0.01091  -0.01572  -3.11304
   D240       1.08849  -0.00006  -0.00660  -0.01124  -0.01784   1.07065
   D241       1.14761  -0.00000  -0.00621  -0.01187  -0.01808   1.12952
   D242      -0.93610   0.00000  -0.00567  -0.01197  -0.01765  -0.95375
   D243      -3.03347  -0.00000  -0.00747  -0.01231  -0.01977  -3.05325
   D244      -3.08064  -0.00010  -0.00456  -0.01232  -0.01688  -3.09752
   D245       1.11884  -0.00010  -0.00402  -0.01242  -0.01644   1.10240
   D246      -0.97853  -0.00010  -0.00582  -0.01275  -0.01857  -0.99710
         Item               Value     Threshold  Converged?
 Maximum Force            0.005335     0.000450     NO 
 RMS     Force            0.000657     0.000300     NO 
 Maximum Displacement     0.570524     0.001800     NO 
 RMS     Displacement     0.116748     0.001200     NO 
 Predicted change in Energy=-7.108820D-04
 Lowest energy point so far.  Saving SCF results.
 GradGradGradGradGradGradGradGradGradGradGradGradGradGradGradGradGradGrad

 Leave Link  103 at Mon Jul 28 18:53:52 2025, MaxMem=  1073741824 cpu:               1.1 elap:               0.2
 (Enter /app/gaussian/g16/l202.exe)
 Stoichiometry    C27H44O
 Framework group  C1[X(C27H44O)]
 Deg. of freedom   210
 Full point group                 C1      NOp   1
 RotChk:  IX=0 Diff= 4.42D-02
 Largest Abelian subgroup         C1      NOp   1
 Largest concise Abelian subgroup C1      NOp   1
                         Standard orientation:                         
 ---------------------------------------------------------------------
 Center     Atomic      Atomic             Coordinates (Angstroms)
 Number     Number       Type             X           Y           Z
 ---------------------------------------------------------------------
      1          6           0       -1.073086   -0.528812   -0.637185
      2          6           0       -0.636297    0.851828   -0.081754
      3          6           0        0.266660    0.670926    1.181387
      4          6           0        1.557308   -0.061881    0.928597
      5          6           0        2.382793    0.471190   -0.253309
      6          6           0        3.579187   -0.476930   -0.658318
      7          6           0        3.099450   -1.682117   -1.523923
      8          6           0        4.237369   -1.079609    0.594156
      9          6           0        3.498108   -1.361654    1.687913
     10          6           0        2.106660   -0.931917    1.807377
     11          6           0        5.704635   -1.397959    0.471245
     12          6           0        6.530688   -0.114608    0.229191
     13          8           0        7.683775   -0.562966   -0.571210
     14          6           0        5.708362    0.959872   -0.513479
     15          6           0        4.669403    0.324846   -1.453404
     16          6           0        1.489899    0.850220   -1.477960
     17          6           0        0.199774    1.623416   -1.121682
     18          6           0       -0.710833    0.198278    2.277899
     19          6           0       -2.048633    0.937321    1.938990
     20          6           0       -1.804586    1.666679    0.570769
     21          6           0       -3.042466    2.111548   -0.268597
     22          6           0       -3.973304    1.068496   -0.957443
     23          6           0       -4.874654    0.166564   -0.088691
     24          6           0       -5.908910   -0.590959   -0.943834
     25          6           0       -6.922779   -1.441130   -0.142058
     26          6           0       -8.018177   -1.992150   -1.076327
     27          6           0       -6.244218   -2.591121    0.629381
     28          6           0       -3.881054    3.123856    0.550331
     29          1           0       -0.235467   -1.234106   -0.632614
     30          1           0       -1.874047   -0.972991   -0.038760
     31          1           0       -1.432983   -0.446464   -1.668349
     32          1           0        0.568671    1.703491    1.450321
     33          1           0        2.837660    1.416362    0.109765
     34          1           0        3.911879   -2.410662   -1.624919
     35          1           0        2.813857   -1.366575   -2.533384
     36          1           0        2.247665   -2.186410   -1.055607
     37          1           0        3.949928   -1.875479    2.534781
     38          1           0        1.549052   -1.247392    2.684941
     39          1           0        6.070320   -1.939014    1.350210
     40          1           0        5.887867   -2.040212   -0.402837
     41          1           0        6.907350    0.290333    1.178428
     42          1           0        8.326341    0.164465   -0.693152
     43          1           0        6.387579    1.621124   -1.070253
     44          1           0        5.203085    1.587033    0.233221
     45          1           0        4.193555    1.095369   -2.070955
     46          1           0        5.190092   -0.350464   -2.144996
     47          1           0        1.196909   -0.059507   -2.009647
     48          1           0        2.080575    1.446147   -2.184875
     49          1           0        0.452958    2.614054   -0.712094
     50          1           0       -0.376899    1.794164   -2.042288
     51          1           0       -0.351091    0.435622    3.285187
     52          1           0       -0.844209   -0.889815    2.229408
     53          1           0       -2.877960    0.229501    1.878471
     54          1           0       -2.310377    1.661817    2.718940
     55          1           0       -1.330589    2.628750    0.835177
     56          1           0       -2.613098    2.680666   -1.110900
     57          1           0       -3.386343    0.435578   -1.632103
     58          1           0       -4.638767    1.658482   -1.609015
     59          1           0       -5.408727    0.772149    0.658966
     60          1           0       -4.266397   -0.554600    0.467945
     61          1           0       -6.468019    0.140388   -1.548433
     62          1           0       -5.383770   -1.245536   -1.659467
     63          1           0       -7.406740   -0.776000    0.593531
     64          1           0       -7.583315   -2.665134   -1.828667
     65          1           0       -8.531823   -1.180805   -1.607217
     66          1           0       -8.768800   -2.559444   -0.512205
     67          1           0       -5.709365   -3.256536   -0.063295
     68          1           0       -6.988619   -3.194034    1.164779
     69          1           0       -5.522732   -2.220112    1.365988
     70          1           0       -3.255598    3.952123    0.906462
     71          1           0       -4.685919    3.547778   -0.063668
     72          1           0       -4.341681    2.654471    1.427212
 ---------------------------------------------------------------------
 Rotational constants (GHZ):           0.4170644           0.0641150           0.0622514
 Leave Link  202 at Mon Jul 28 18:53:52 2025, MaxMem=  1073741824 cpu:               0.1 elap:               0.0
 (Enter /app/gaussian/g16/l301.exe)
 Standard basis: 6-31+G (6D, 7F)
 Ernie: Thresh=  0.10000D-02 Tol=  0.10000D-05 Strict=F.
 There are   452 symmetry adapted cartesian basis functions of A   symmetry.
 There are   452 symmetry adapted basis functions of A   symmetry.
   452 basis functions,   904 primitive gaussians,   452 cartesian basis functions
   107 alpha electrons      107 beta electrons
       nuclear repulsion energy      2768.9442266175 Hartrees.
 IExCor=  402 DFT=T Ex+Corr=B3LYP ExCW=0 ScaHFX=  0.200000
 ScaDFX=  0.800000  0.720000  1.000000  0.810000 ScalE2=  1.000000  1.000000
 IRadAn=      5 IRanWt=     -1 IRanGd=            0 ICorTp=0 IEmpDi=  4
 NAtoms=   72 NActive=   72 NUniq=   72 SFac= 1.00D+00 NAtFMM=   60 NAOKFM=T Big=T
 Integral buffers will be    131072 words long.
 Raffenetti 2 integral format.
 Two-electron integral symmetry is turned on.
 Leave Link  301 at Mon Jul 28 18:53:53 2025, MaxMem=  1073741824 cpu:               0.4 elap:               0.1
 (Enter /app/gaussian/g16/l302.exe)
 NPDir=0 NMtPBC=     1 NCelOv=     1 NCel=       1 NClECP=     1 NCelD=      1
         NCelK=      1 NCelE2=     1 NClLst=     1 CellRange=     0.0.
 One-electron integrals computed using PRISM.
 One-electron integral symmetry used in STVInt
 NBasis=   452 RedAO= T EigKep=  1.32D-06  NBF=   452
 NBsUse=   449 1.00D-06 EigRej=  7.51D-07 NBFU=   449
 Precomputing XC quadrature grid using
 IXCGrd= 4 IRadAn=           5 IRanWt=          -1 IRanGd=           0 AccXCQ= 0.00D+00.
 Generated NRdTot=       0 NPtTot=           0 NUsed=           0 NTot=          32
 NSgBfM=   437   436   437   437   437 MxSgAt=    72 MxSgA2=    72.
 Leave Link  302 at Mon Jul 28 18:53:54 2025, MaxMem=  1073741824 cpu:              10.6 elap:               1.3
 (Enter /app/gaussian/g16/l303.exe)
 DipDrv:  MaxL=1.
 Leave Link  303 at Mon Jul 28 18:53:54 2025, MaxMem=  1073741824 cpu:               0.5 elap:               0.1
 (Enter /app/gaussian/g16/l401.exe)
 Initial guess from the checkpoint file:  "/work/scr/Gau-256556.chk"
 B after Tr=    -0.000000    0.000000   -0.000000
         Rot=    0.999900    0.013698   -0.001856    0.002936 Ang=   1.62 deg.
 Guess basis will be translated and rotated to current coordinates.
 JPrj=2 DoOrth=T DoCkMO=T.
 Generating alternative initial guess.
 ExpMin= 4.38D-02 ExpMax= 5.48D+03 ExpMxC= 8.25D+02 IAcc=3 IRadAn=         5 AccDes= 0.00D+00
 Harris functional with IExCor=  402 and IRadAn=       5 diagonalized for initial guess.
 HarFok:  IExCor=  402 AccDes= 0.00D+00 IRadAn=         5 IDoV= 1 UseB2=F ITyADJ=14
 ICtDFT=  3500011 ScaDFX=  1.000000  1.000000  1.000000  1.000000
 FoFCou: FMM=F IPFlag=           0 FMFlag=      100000 FMFlg1=        2001
         NFxFlg=           0 DoJE=T BraDBF=F KetDBF=T FulRan=T
         wScrn=  0.000000 ICntrl=       500 IOpCl=  0 I1Cent=   200000004 NGrid=           0
         NMat0=    1 NMatS0=      1 NMatT0=    0 NMatD0=    1 NMtDS0=    0 NMtDT0=    0
 Petite list used in FoFCou.
 Harris En= -1130.40121020992    
 Leave Link  401 at Mon Jul 28 18:54:03 2025, MaxMem=  1073741824 cpu:              75.9 elap:               9.5
 (Enter /app/gaussian/g16/l502.exe)
 Integral symmetry usage will be decided dynamically.
 Closed shell SCF:
 Using DIIS extrapolation, IDIIS=  1040.
 NGot=  1073741824 LenX=  1073322182 LenY=  1073117426
 Requested convergence on RMS density matrix=1.00D-08 within 128 cycles.
 Requested convergence on MAX density matrix=1.00D-06.
 Requested convergence on             energy=1.00D-06.
 No special actions if energy rises.
 Fock matrices will be formed incrementally for  20 cycles.

 Cycle   1  Pass 1  IDiag  1:
 FoFJK:  IHMeth= 1 ICntrl=       0 DoSepK=F KAlg= 0 I1Cent=           0 FoldK=F
 IRaf= 990000000 NMat=       1 IRICut=       1 DoRegI=T DoRafI=F ISym2E= 0 IDoP0=0 IntGTp=1.
 FoFCou: FMM=T IPFlag=           0 FMFlag=      100000 FMFlg1=        2001
         NFxFlg=           0 DoJE=F BraDBF=F KetDBF=F FulRan=T
         wScrn=  0.000000 ICntrl=         0 IOpCl=  0 I1Cent=           0 NGrid=           0
         NMat0=    1 NMatS0=      1 NMatT0=    0 NMatD0=    1 NMtDS0=    0 NMtDT0=    0
 Symmetry not used in FoFCou.
 FMM levels:  10  Number of levels for PrismC:   9
 E= -1130.27250146062    
 DIIS: error= 1.60D-02 at cycle   1 NSaved=   1.
 NSaved= 1 IEnMin= 1 EnMin= -1130.27250146062     IErMin= 1 ErrMin= 1.60D-02
 ErrMax= 1.60D-02  0.00D+00 EMaxC= 1.00D-01 BMatC= 6.80D-02 BMatP= 6.80D-02
 IDIUse=3 WtCom= 8.40D-01 WtEn= 1.60D-01
 Coeff-Com:  0.100D+01
 Coeff-En:   0.100D+01
 Coeff:      0.100D+01
 Recover alternate guess density for next cycle.
 RMSDP=2.11D-02 MaxDP=1.62D+00              OVMax= 0.00D+00

 Cycle   2  Pass 1  IDiag  1:
 RMSU=  2.10D-02    CP:  1.01D+00
 E= -1129.48487665881     Delta-E=        0.787624801807 Rises=F Damp=F
 Switch densities from cycles 1 and 2 for lowest energy.
 DIIS: error= 2.32D-02 at cycle   2 NSaved=   2.
 NSaved= 2 IEnMin= 1 EnMin= -1130.27250146062     IErMin= 1 ErrMin= 1.60D-02
 ErrMax= 2.32D-02  0.00D+00 EMaxC= 1.00D+00 BMatC= 7.37D-01 BMatP= 6.80D-02
 IDIUse=1 WtCom= 1.00D+00 WtEn= 0.00D+00
 Coeff-Com:  0.912D+00 0.875D-01
 Coeff:      0.912D+00 0.875D-01
 Gap=     0.177 Goal=   None    Shift=    0.000
 RMSDP=7.64D-03 MaxDP=4.72D-01 DE= 7.88D-01 OVMax= 9.15D-02

 Cycle   3  Pass 1  IDiag  1:
 RMSU=  6.76D-03    CP:  1.03D+00  8.53D-02
 E= -1130.31682051421     Delta-E=       -0.831943855404 Rises=F Damp=F
 DIIS: error= 2.38D-03 at cycle   3 NSaved=   3.
 NSaved= 3 IEnMin= 3 EnMin= -1130.31682051421     IErMin= 3 ErrMin= 2.38D-03
 ErrMax= 2.38D-03  0.00D+00 EMaxC= 1.00D+00 BMatC= 7.31D-03 BMatP= 6.80D-02
 IDIUse=1 WtCom= 1.00D+00 WtEn= 0.00D+00
 Coeff-Com:  0.148D-02 0.854D-01 0.913D+00
 Coeff:      0.148D-02 0.854D-01 0.913D+00
 Gap=     0.172 Goal=   None    Shift=    0.000
 RMSDP=7.11D-03 MaxDP=9.88D-01 DE=-8.32D-01 OVMax= 9.77D-03

 Cycle   4  Pass 1  IDiag  1:
 RMSU=  3.06D-03    CP:  9.75D-01  1.72D-01  6.16D-01
 E= -1130.32408076124     Delta-E=       -0.007260247024 Rises=F Damp=F
 DIIS: error= 7.97D-04 at cycle   4 NSaved=   4.
 NSaved= 4 IEnMin= 4 EnMin= -1130.32408076124     IErMin= 4 ErrMin= 7.97D-04
 ErrMax= 7.97D-04  0.00D+00 EMaxC= 1.00D+00 BMatC= 6.69D-04 BMatP= 7.31D-03
 IDIUse=1 WtCom= 1.00D+00 WtEn= 0.00D+00
 Coeff-Com: -0.559D-02 0.336D-01 0.415D+00 0.557D+00
 Coeff:     -0.559D-02 0.336D-01 0.415D+00 0.557D+00
 Gap=     0.172 Goal=   None    Shift=    0.000
 RMSDP=1.48D-03 MaxDP=7.86D-02 DE=-7.26D-03 OVMax= 9.95D-03

 Cycle   5  Pass 1  IDiag  1:
 RMSU=  9.28D-04    CP:  9.77D-01  1.55D-01  7.23D-01  7.34D-01
 E= -1130.32461158609     Delta-E=       -0.000530824855 Rises=F Damp=F
 DIIS: error= 4.69D-04 at cycle   5 NSaved=   5.
 NSaved= 5 IEnMin= 5 EnMin= -1130.32461158609     IErMin= 5 ErrMin= 4.69D-04
 ErrMax= 4.69D-04  0.00D+00 EMaxC= 1.00D+00 BMatC= 1.31D-04 BMatP= 6.69D-04
 IDIUse=1 WtCom= 1.00D+00 WtEn= 0.00D+00
 Coeff-Com: -0.229D-02 0.661D-02 0.111D+00 0.328D+00 0.556D+00
 Coeff:     -0.229D-02 0.661D-02 0.111D+00 0.328D+00 0.556D+00
 Gap=     0.172 Goal=   None    Shift=    0.000
 RMSDP=5.11D-04 MaxDP=3.88D-02 DE=-5.31D-04 OVMax= 5.13D-03

 Cycle   6  Pass 1  IDiag  1:
 RMSU=  2.45D-04    CP:  9.79D-01  1.60D-01  7.23D-01  7.20D-01  6.35D-01
 E= -1130.32473375559     Delta-E=       -0.000122169497 Rises=F Damp=F
 DIIS: error= 1.28D-04 at cycle   6 NSaved=   6.
 NSaved= 6 IEnMin= 6 EnMin= -1130.32473375559     IErMin= 6 ErrMin= 1.28D-04
 ErrMax= 1.28D-04  0.00D+00 EMaxC= 1.00D+00 BMatC= 1.06D-05 BMatP= 1.31D-04
 IDIUse=1 WtCom= 1.00D+00 WtEn= 0.00D+00
 Coeff-Com: -0.818D-03 0.136D-02 0.332D-01 0.148D+00 0.317D+00 0.502D+00
 Coeff:     -0.818D-03 0.136D-02 0.332D-01 0.148D+00 0.317D+00 0.502D+00
 Gap=     0.172 Goal=   None    Shift=    0.000
 RMSDP=1.38D-04 MaxDP=7.51D-03 DE=-1.22D-04 OVMax= 1.61D-03

 Cycle   7  Pass 1  IDiag  1:
 RMSU=  9.23D-05    CP:  9.79D-01  1.60D-01  7.16D-01  7.35D-01  6.17D-01
                    CP:  7.21D-01
 E= -1130.32474440597     Delta-E=       -0.000010650380 Rises=F Damp=F
 DIIS: error= 3.03D-05 at cycle   7 NSaved=   7.
 NSaved= 7 IEnMin= 7 EnMin= -1130.32474440597     IErMin= 7 ErrMin= 3.03D-05
 ErrMax= 3.03D-05  0.00D+00 EMaxC= 1.00D+00 BMatC= 8.83D-07 BMatP= 1.06D-05
 IDIUse=1 WtCom= 1.00D+00 WtEn= 0.00D+00
 Coeff-Com: -0.200D-03 0.329D-04 0.486D-02 0.413D-01 0.106D+00 0.271D+00
 Coeff-Com:  0.577D+00
 Coeff:     -0.200D-03 0.329D-04 0.486D-02 0.413D-01 0.106D+00 0.271D+00
 Coeff:      0.577D+00
 Gap=     0.172 Goal=   None    Shift=    0.000
 RMSDP=4.34D-05 MaxDP=2.19D-03 DE=-1.07D-05 OVMax= 4.60D-04

 Cycle   8  Pass 1  IDiag  1:
 RMSU=  2.38D-05    CP:  9.79D-01  1.59D-01  7.16D-01  7.40D-01  6.21D-01
                    CP:  6.82D-01  6.89D-01
 E= -1130.32474526155     Delta-E=       -0.000000855587 Rises=F Damp=F
 DIIS: error= 1.47D-05 at cycle   8 NSaved=   8.
 NSaved= 8 IEnMin= 8 EnMin= -1130.32474526155     IErMin= 8 ErrMin= 1.47D-05
 ErrMax= 1.47D-05  0.00D+00 EMaxC= 1.00D+00 BMatC= 1.35D-07 BMatP= 8.83D-07
 IDIUse=1 WtCom= 1.00D+00 WtEn= 0.00D+00
 Coeff-Com: -0.529D-04-0.104D-03-0.655D-03 0.951D-02 0.314D-01 0.113D+00
 Coeff-Com:  0.349D+00 0.498D+00
 Coeff:     -0.529D-04-0.104D-03-0.655D-03 0.951D-02 0.314D-01 0.113D+00
 Coeff:      0.349D+00 0.498D+00
 Gap=     0.172 Goal=   None    Shift=    0.000
 RMSDP=1.41D-05 MaxDP=1.35D-03 DE=-8.56D-07 OVMax= 1.32D-04

 Cycle   9  Pass 1  IDiag  1:
 RMSU=  6.85D-06    CP:  9.79D-01  1.59D-01  7.16D-01  7.40D-01  6.28D-01
                    CP:  6.81D-01  6.83D-01  7.59D-01
 E= -1130.32474538437     Delta-E=       -0.000000122812 Rises=F Damp=F
 DIIS: error= 2.10D-06 at cycle   9 NSaved=   9.
 NSaved= 9 IEnMin= 9 EnMin= -1130.32474538437     IErMin= 9 ErrMin= 2.10D-06
 ErrMax= 2.10D-06  0.00D+00 EMaxC= 1.00D+00 BMatC= 4.87D-09 BMatP= 1.35D-07
 IDIUse=1 WtCom= 1.00D+00 WtEn= 0.00D+00
 Coeff-Com: -0.763D-05-0.483D-04-0.711D-03 0.769D-03 0.517D-02 0.277D-01
 Coeff-Com:  0.110D+00 0.225D+00 0.632D+00
 Coeff:     -0.763D-05-0.483D-04-0.711D-03 0.769D-03 0.517D-02 0.277D-01
 Coeff:      0.110D+00 0.225D+00 0.632D+00
 Gap=     0.172 Goal=   None    Shift=    0.000
 RMSDP=6.14D-06 MaxDP=9.38D-04 DE=-1.23D-07 OVMax= 3.70D-05

 Cycle  10  Pass 1  IDiag  1:
 RMSU=  2.82D-06    CP:  9.79D-01  1.59D-01  7.16D-01  7.40D-01  6.28D-01
                    CP:  6.92D-01  6.89D-01  7.02D-01  7.45D-01
 E= -1130.32474538867     Delta-E=       -0.000000004303 Rises=F Damp=F
 DIIS: error= 1.10D-06 at cycle  10 NSaved=  10.
 NSaved=10 IEnMin=10 EnMin= -1130.32474538867     IErMin=10 ErrMin= 1.10D-06
 ErrMax= 1.10D-06  0.00D+00 EMaxC= 1.00D+00 BMatC= 1.05D-09 BMatP= 4.87D-09
 IDIUse=1 WtCom= 1.00D+00 WtEn= 0.00D+00
 Coeff-Com:  0.131D-06-0.186D-04-0.362D-03-0.504D-03-0.251D-04 0.530D-02
 Coeff-Com:  0.315D-01 0.842D-01 0.369D+00 0.511D+00
 Coeff:      0.131D-06-0.186D-04-0.362D-03-0.504D-03-0.251D-04 0.530D-02
 Coeff:      0.315D-01 0.842D-01 0.369D+00 0.511D+00
 Gap=     0.172 Goal=   None    Shift=    0.000
 RMSDP=1.42D-06 MaxDP=7.66D-05 DE=-4.30D-09 OVMax= 1.85D-05

 Cycle  11  Pass 1  IDiag  1:
 RMSU=  8.27D-07    CP:  9.79D-01  1.59D-01  7.16D-01  7.40D-01  6.28D-01
                    CP:  6.93D-01  6.91D-01  7.04D-01  7.79D-01  7.16D-01
 E= -1130.32474538933     Delta-E=       -0.000000000663 Rises=F Damp=F
 DIIS: error= 5.20D-07 at cycle  11 NSaved=  11.
 NSaved=11 IEnMin=11 EnMin= -1130.32474538933     IErMin=11 ErrMin= 5.20D-07
 ErrMax= 5.20D-07  0.00D+00 EMaxC= 1.00D+00 BMatC= 1.19D-10 BMatP= 1.05D-09
 IDIUse=1 WtCom= 1.00D+00 WtEn= 0.00D+00
 Coeff-Com:  0.993D-06-0.332D-05-0.977D-04-0.408D-03-0.792D-03-0.130D-02
 Coeff-Com:  0.113D-02 0.147D-01 0.120D+00 0.294D+00 0.573D+00
 Coeff:      0.993D-06-0.332D-05-0.977D-04-0.408D-03-0.792D-03-0.130D-02
 Coeff:      0.113D-02 0.147D-01 0.120D+00 0.294D+00 0.573D+00
 Gap=     0.172 Goal=   None    Shift=    0.000
 RMSDP=5.58D-07 MaxDP=2.52D-05 DE=-6.63D-10 OVMax= 6.86D-06

 Cycle  12  Pass 1  IDiag  1:
 RMSU=  3.08D-07    CP:  9.79D-01  1.59D-01  7.16D-01  7.40D-01  6.28D-01
                    CP:  6.92D-01  6.92D-01  7.17D-01  7.66D-01  7.17D-01
                    CP:  6.75D-01
 E= -1130.32474538982     Delta-E=       -0.000000000489 Rises=F Damp=F
 DIIS: error= 1.18D-07 at cycle  12 NSaved=  12.
 NSaved=12 IEnMin=12 EnMin= -1130.32474538982     IErMin=12 ErrMin= 1.18D-07
 ErrMax= 1.18D-07  0.00D+00 EMaxC= 1.00D+00 BMatC= 1.49D-11 BMatP= 1.19D-10
 IDIUse=1 WtCom= 1.00D+00 WtEn= 0.00D+00
 Coeff-Com:  0.539D-06-0.618D-07-0.180D-04-0.178D-03-0.435D-03-0.123D-02
 Coeff-Com: -0.246D-02-0.156D-03 0.299D-01 0.111D+00 0.335D+00 0.529D+00
 Coeff:      0.539D-06-0.618D-07-0.180D-04-0.178D-03-0.435D-03-0.123D-02
 Coeff:     -0.246D-02-0.156D-03 0.299D-01 0.111D+00 0.335D+00 0.529D+00
 Gap=     0.172 Goal=   None    Shift=    0.000
 RMSDP=2.13D-07 MaxDP=1.25D-05 DE=-4.89D-10 OVMax= 1.60D-06

 Cycle  13  Pass 1  IDiag  1:
 RMSU=  1.01D-07    CP:  9.79D-01  1.59D-01  7.16D-01  7.40D-01  6.28D-01
                    CP:  6.92D-01  6.92D-01  7.16D-01  7.72D-01  7.20D-01
                    CP:  6.86D-01  7.49D-01
 E= -1130.32474538972     Delta-E=        0.000000000100 Rises=F Damp=F
 DIIS: error= 2.03D-08 at cycle  13 NSaved=  13.
 NSaved=13 IEnMin=12 EnMin= -1130.32474538982     IErMin=13 ErrMin= 2.03D-08
 ErrMax= 2.03D-08  0.00D+00 EMaxC= 1.00D+00 BMatC= 6.55D-13 BMatP= 1.49D-11
 IDIUse=1 WtCom= 1.00D+00 WtEn= 0.00D+00
 Coeff-Com:  0.142D-06 0.346D-06 0.341D-05-0.349D-04-0.111D-03-0.424D-03
 Coeff-Com: -0.129D-02-0.178D-02 0.205D-03 0.170D-01 0.899D-01 0.229D+00
 Coeff-Com:  0.667D+00
 Coeff:      0.142D-06 0.346D-06 0.341D-05-0.349D-04-0.111D-03-0.424D-03
 Coeff:     -0.129D-02-0.178D-02 0.205D-03 0.170D-01 0.899D-01 0.229D+00
 Coeff:      0.667D+00
 Gap=     0.172 Goal=   None    Shift=    0.000
 RMSDP=9.72D-08 MaxDP=8.70D-06 DE= 1.00D-10 OVMax= 1.20D-07

 Cycle  14  Pass 1  IDiag  1:
 RMSU=  3.19D-08    CP:  9.79D-01  1.59D-01  7.16D-01  7.40D-01  6.28D-01
                    CP:  6.92D-01  6.92D-01  7.16D-01  7.74D-01  7.24D-01
                    CP:  7.00D-01  6.99D-01  8.32D-01
 E= -1130.32474538974     Delta-E=       -0.000000000024 Rises=F Damp=F
 DIIS: error= 4.42D-09 at cycle  14 NSaved=  14.
 NSaved=14 IEnMin=12 EnMin= -1130.32474538982     IErMin=14 ErrMin= 4.42D-09
 ErrMax= 4.42D-09  0.00D+00 EMaxC= 1.00D+00 BMatC= 3.04D-14 BMatP= 6.55D-13
 IDIUse=1 WtCom= 1.00D+00 WtEn= 0.00D+00
 Coeff-Com:  0.185D-07 0.124D-06 0.240D-05-0.889D-06-0.109D-04-0.693D-04
 Coeff-Com: -0.289D-03-0.619D-03-0.183D-02-0.951D-03 0.101D-01 0.476D-01
 Coeff-Com:  0.235D+00 0.711D+00
 Coeff:      0.185D-07 0.124D-06 0.240D-05-0.889D-06-0.109D-04-0.693D-04
 Coeff:     -0.289D-03-0.619D-03-0.183D-02-0.951D-03 0.101D-01 0.476D-01
 Coeff:      0.235D+00 0.711D+00
 Gap=     0.172 Goal=   None    Shift=    0.000
 RMSDP=1.50D-08 MaxDP=1.12D-06 DE=-2.36D-11 OVMax= 3.27D-08

 Cycle  15  Pass 1  IDiag  1:
 RMSU=  6.28D-09    CP:  9.79D-01  1.59D-01  7.16D-01  7.40D-01  6.28D-01
                    CP:  6.92D-01  6.92D-01  7.16D-01  7.74D-01  7.24D-01
                    CP:  7.01D-01  7.03D-01  8.32D-01  8.19D-01
 E= -1130.32474538984     Delta-E=       -0.000000000100 Rises=F Damp=F
 DIIS: error= 2.01D-09 at cycle  15 NSaved=  15.
 NSaved=15 IEnMin=15 EnMin= -1130.32474538984     IErMin=15 ErrMin= 2.01D-09
 ErrMax= 2.01D-09  0.00D+00 EMaxC= 1.00D+00 BMatC= 4.41D-15 BMatP= 3.04D-14
 IDIUse=1 WtCom= 1.00D+00 WtEn= 0.00D+00
 Coeff-Com: -0.105D-08 0.252D-07 0.771D-06 0.231D-05 0.413D-05 0.352D-05
 Coeff-Com: -0.219D-04-0.129D-03-0.807D-03-0.177D-02-0.300D-02 0.254D-02
 Coeff-Com:  0.500D-01 0.327D+00 0.627D+00
 Coeff:     -0.105D-08 0.252D-07 0.771D-06 0.231D-05 0.413D-05 0.352D-05
 Coeff:     -0.219D-04-0.129D-03-0.807D-03-0.177D-02-0.300D-02 0.254D-02
 Coeff:      0.500D-01 0.327D+00 0.627D+00
 Gap=     0.172 Goal=   None    Shift=    0.000
 RMSDP=3.75D-09 MaxDP=4.28D-07 DE=-9.96D-11 OVMax= 8.54D-09

 SCF Done:  E(RB3LYP) =  -1130.32474539     A.U. after   15 cycles
            NFock= 15  Conv=0.38D-08     -V/T= 2.0059
 KE= 1.123714561634D+03 PE=-8.157304545911D+03 EE= 3.134321012270D+03
 Leave Link  502 at Mon Jul 28 18:58:53 2025, MaxMem=  1073741824 cpu:            2308.2 elap:             289.5
 (Enter /app/gaussian/g16/l701.exe)
 ... and contract with generalized density number  0.
 Compute integral first derivatives.
 Leave Link  701 at Mon Jul 28 18:58:53 2025, MaxMem=  1073741824 cpu:               1.9 elap:               0.3
 (Enter /app/gaussian/g16/l702.exe)
 L702 exits ... SP integral derivatives will be done elsewhere.
 Leave Link  702 at Mon Jul 28 18:58:53 2025, MaxMem=  1073741824 cpu:               0.2 elap:               0.0
 (Enter /app/gaussian/g16/l703.exe)
 Integral derivatives from FoFJK, PRISM(SPDF).
 Compute integral first derivatives, UseDBF=F ICtDFT=           0.
 Calling FoFJK, ICntrl=      2127 FMM=T ISym2X=0 I1Cent= 0 IOpClX= 0 NMat=1 NMatS=1 NMatT=0.
 FoFJK:  IHMeth= 1 ICntrl=    2127 DoSepK=F KAlg= 0 I1Cent=           0 FoldK=F
 IRaf=         0 NMat=       1 IRICut=       1 DoRegI=T DoRafI=F ISym2E= 0 IDoP0=0 IntGTp=1.
 FoFCou: FMM=T IPFlag=           0 FMFlag=      100000 FMFlg1=        2001
         NFxFlg=           0 DoJE=F BraDBF=F KetDBF=F FulRan=T
         wScrn=  0.000000 ICntrl=      2127 IOpCl=  0 I1Cent=           0 NGrid=           0
         NMat0=    1 NMatS0=      1 NMatT0=    0 NMatD0=    1 NMtDS0=    0 NMtDT0=    0
 Symmetry not used in FoFCou.
 FMM levels:  10  Number of levels for PrismC:   9
 Leave Link  703 at Mon Jul 28 18:59:43 2025, MaxMem=  1073741824 cpu:             396.8 elap:              49.8
 (Enter /app/gaussian/g16/l716.exe)
 Dipole        =-2.17664911D-01 9.18640813D-01 9.53083852D-02
 ***** Axes restored to original set *****
 -------------------------------------------------------------------
 Center     Atomic                   Forces (Hartrees/Bohr)
 Number     Number              X              Y              Z
 -------------------------------------------------------------------
      1        6           0.000518672    0.000024500    0.000962523
      2        6           0.000247879    0.000370035    0.000290286
      3        6           0.000312518   -0.000027209   -0.000234701
      4        6          -0.000565848    0.000438867    0.001415314
      5        6          -0.000269863   -0.001271120   -0.001335530
      6        6          -0.000422381   -0.000345477    0.001196349
      7        6          -0.000042805    0.000059686    0.000589264
      8        6           0.000140466    0.000446291   -0.001775789
      9        6           0.000896734    0.000234382    0.000778886
     10        6          -0.000155260   -0.000050507   -0.000955861
     11        6           0.000568290   -0.000465599    0.001493677
     12        6           0.000177941    0.000298893   -0.001797261
     13        8          -0.002000595   -0.000907729   -0.000054837
     14        6          -0.000099540    0.000873740    0.000191032
     15        6           0.000627012    0.000348026    0.000111408
     16        6          -0.000650770    0.000595967    0.000329192
     17        6           0.000388816   -0.000208307   -0.000074092
     18        6           0.000205769   -0.000333138   -0.000304716
     19        6          -0.000217850   -0.000973816    0.000353902
     20        6           0.000946097    0.000103255   -0.000277385
     21        6          -0.000786316   -0.000217525    0.000473683
     22        6          -0.000342230    0.000438210    0.000389213
     23        6          -0.000354502    0.000023058    0.001167802
     24        6           0.000130914    0.000349504   -0.000318906
     25        6          -0.000034666   -0.000267544   -0.000048571
     26        6           0.000222273    0.000118864   -0.000173434
     27        6          -0.000080611    0.000094129   -0.000128119
     28        6           0.000040013    0.000109736   -0.000231392
     29        1           0.000012139    0.000004677   -0.000234621
     30        1           0.000177031    0.000074142    0.000051987
     31        1           0.000077103   -0.000298741    0.000005186
     32        1          -0.000227609    0.000578449   -0.000176925
     33        1           0.000334727   -0.000089860   -0.000191422
     34        1           0.000151413   -0.000175022   -0.000129690
     35        1           0.000102338   -0.000143851    0.000040341
     36        1           0.000096498   -0.000049424   -0.000130140
     37        1          -0.000027650   -0.000101448    0.000210585
     38        1           0.000028187    0.000121032    0.000054493
     39        1          -0.000458112   -0.000318033    0.000386456
     40        1          -0.000175204    0.000391198   -0.000083313
     41        1           0.000626960    0.000305240    0.000070605
     42        1          -0.000758583   -0.000011821   -0.000291333
     43        1           0.000203220    0.000289166   -0.000099596
     44        1           0.000591185   -0.000412822    0.000481762
     45        1           0.000202794   -0.000061788   -0.000182669
     46        1           0.000175624   -0.000109461   -0.000023773
     47        1          -0.000420970   -0.000068426   -0.000507460
     48        1          -0.000078406    0.000127430   -0.000102801
     49        1           0.000096460   -0.000152290   -0.000082931
     50        1           0.000093218   -0.000032881    0.000227629
     51        1          -0.000100936    0.000078454    0.000067685
     52        1          -0.000142900    0.000209423    0.000079686
     53        1           0.000849841    0.000053580   -0.000921019
     54        1           0.000288845   -0.000152674   -0.000171015
     55        1           0.000045269   -0.000319328    0.000000154
     56        1          -0.000295995   -0.000102637    0.000279996
     57        1          -0.000437714    0.000145809   -0.000215897
     58        1          -0.000273645   -0.000209777   -0.000281260
     59        1          -0.000319679   -0.000151927   -0.000400850
     60        1          -0.000710117    0.000377863    0.000101605
     61        1          -0.000044068    0.000145254   -0.000005329
     62        1           0.000194179    0.000033712    0.000183910
     63        1          -0.000046582   -0.000081894   -0.000296708
     64        1           0.000153788    0.000024660    0.000152246
     65        1           0.000211176    0.000016058   -0.000146192
     66        1           0.000242891   -0.000209196   -0.000177263
     67        1           0.000129202    0.000100025    0.000100982
     68        1          -0.000165404    0.000092007    0.000110638
     69        1           0.000113006    0.000231532   -0.000211495
     70        1           0.000174959   -0.000101750    0.000059820
     71        1          -0.000041133    0.000127680    0.000125364
     72        1          -0.000047499   -0.000031511    0.000240636
 -------------------------------------------------------------------
 Cartesian Forces:  Max     0.002000595 RMS     0.000447045
 Leave Link  716 at Mon Jul 28 18:59:43 2025, MaxMem=  1073741824 cpu:               0.2 elap:               0.0
 (Enter /app/gaussian/g16/l103.exe)

 GradGradGradGradGradGradGradGradGradGradGradGradGradGradGradGradGradGrad
 Berny optimization.
 Using GEDIIS/GDIIS optimizer.
 FormGI is forming the generalized inverse of G from B-inverse, IUseBI=4.
 Internal  Forces:  Max     0.004122374 RMS     0.000470316
 Search for a local minimum.
 Step number   4 out of a maximum of  432
 All quantities printed in internal units (Hartrees-Bohrs-Radians)
 RMS Force = .47032D-03 SwitMx=.10000D-02 MixMth= 2
 Mixed Optimization -- En-DIIS/RFO-DIIS
 Swapping is turned off.
 Update second derivatives using D2CorX and points    2    3    4
 DE= -1.94D-04 DEPred=-7.11D-04 R= 2.73D-01
 Trust test= 2.73D-01 RLast= 2.93D-01 DXMaxT set to 8.49D-01
 ITU=  0  1  1  0
     Eigenvalues ---    0.00220   0.00230   0.00233   0.00238   0.00243
     Eigenvalues ---    0.00247   0.00282   0.00306   0.00334   0.00359
     Eigenvalues ---    0.00362   0.00375   0.00438   0.00495   0.00557
     Eigenvalues ---    0.00645   0.00921   0.01020   0.01204   0.01326
     Eigenvalues ---    0.01704   0.01950   0.02013   0.02112   0.02345
     Eigenvalues ---    0.02399   0.02478   0.02619   0.02714   0.02965
     Eigenvalues ---    0.03022   0.03241   0.03393   0.03498   0.03565
     Eigenvalues ---    0.03621   0.03716   0.03887   0.03941   0.04187
     Eigenvalues ---    0.04217   0.04410   0.04608   0.04636   0.04687
     Eigenvalues ---    0.04698   0.04736   0.04777   0.04815   0.04856
     Eigenvalues ---    0.04884   0.04901   0.04938   0.05043   0.05191
     Eigenvalues ---    0.05287   0.05324   0.05368   0.05379   0.05432
     Eigenvalues ---    0.05437   0.05462   0.05471   0.05493   0.05538
     Eigenvalues ---    0.05560   0.05591   0.05598   0.05624   0.05826
     Eigenvalues ---    0.05892   0.05947   0.05982   0.06367   0.06779
     Eigenvalues ---    0.06938   0.07133   0.07204   0.07430   0.07712
     Eigenvalues ---    0.07939   0.08013   0.08131   0.08174   0.08195
     Eigenvalues ---    0.08286   0.08681   0.08723   0.08987   0.09459
     Eigenvalues ---    0.09743   0.10207   0.10860   0.11096   0.12070
     Eigenvalues ---    0.12150   0.12464   0.12890   0.13004   0.14211
     Eigenvalues ---    0.14600   0.15326   0.15349   0.15790   0.15918
     Eigenvalues ---    0.15982   0.16000   0.16000   0.16000   0.16000
     Eigenvalues ---    0.16000   0.16000   0.16000   0.16000   0.16000
     Eigenvalues ---    0.16000   0.16000   0.16000   0.16003   0.16018
     Eigenvalues ---    0.16357   0.16639   0.17029   0.17196   0.18245
     Eigenvalues ---    0.19103   0.19231   0.19503   0.20050   0.20672
     Eigenvalues ---    0.21871   0.21958   0.22372   0.22577   0.22976
     Eigenvalues ---    0.23612   0.24519   0.24676   0.25624   0.25871
     Eigenvalues ---    0.26434   0.26792   0.26836   0.27114   0.27669
     Eigenvalues ---    0.27893   0.27967   0.28052   0.28139   0.28416
     Eigenvalues ---    0.28492   0.28541   0.28629   0.28691   0.28807
     Eigenvalues ---    0.29134   0.29356   0.29441   0.30010   0.30762
     Eigenvalues ---    0.31033   0.32838   0.33211   0.33258   0.33533
     Eigenvalues ---    0.33656   0.33721   0.33808   0.33881   0.33934
     Eigenvalues ---    0.33951   0.33957   0.33967   0.33983   0.34014
     Eigenvalues ---    0.34037   0.34057   0.34074   0.34103   0.34107
     Eigenvalues ---    0.34116   0.34120   0.34152   0.34178   0.34183
     Eigenvalues ---    0.34189   0.34199   0.34211   0.34211   0.34216
     Eigenvalues ---    0.34217   0.34222   0.34229   0.34270   0.34278
     Eigenvalues ---    0.34340   0.34343   0.34470   0.34514   0.34562
     Eigenvalues ---    0.34663   0.34801   0.35171   0.35279   0.37567
     Eigenvalues ---    0.39185   0.41947   0.52834   0.53211   0.54999
 En-DIIS/RFO-DIIS/Sim-DIIS IScMMF=       -3 using points:     4    3    2
 RFO step:  Lambda=-5.12558263D-04.
 NNeg= 0 NGDIIS= 3 SimSw=  2.50D-01 Rises=F DC= -1.94D-04 SmlDif=  1.00D-05
 NRisDI= 0 DoIntr=F SqrtH=F CThrHd= 10.0 CDAdj=  3.0
 RMS Error=  0.5734110669D-02 NUsed= 3 OKEnD=T EnDIS=F
 InvSVX:  RCond= 8.21D-03 Info=           0 Equed=N FErr=  2.15D-15 BErr=  8.65D-17
 DidBck=F Rises=F RFO-DIIS coefs:    0.80995    0.18925    0.00080
 Iteration  1 RMS(Cart)=  0.05592175 RMS(Int)=  0.00025705
 Iteration  2 RMS(Cart)=  0.00083741 RMS(Int)=  0.00000422
 Iteration  3 RMS(Cart)=  0.00000012 RMS(Int)=  0.00000422
 ITry= 1 IFail=0 DXMaxC= 2.97D-01 DCOld= 1.00D+10 DXMaxT= 8.49D-01 DXLimC= 3.00D+00 Rises=F
 Variable       Old X    -DE/DX   Delta X   Delta X   Delta X     New X
                                 (Linear)    (Quad)   (Total)
    R1        2.93088  -0.00054  -0.00077  -0.00070  -0.00147   2.92941
    R2        2.06929   0.00013   0.00012   0.00017   0.00029   2.06957
    R3        2.06746   0.00018   0.00005   0.00006   0.00012   2.06757
    R4        2.06975   0.00029   0.00010   0.00015   0.00025   2.07000
    R5        2.95401   0.00014  -0.00055   0.00049  -0.00006   2.95396
    R6        2.91276   0.00029   0.00019  -0.00014   0.00005   2.91282
    R7        2.96071  -0.00102  -0.00032  -0.00100  -0.00132   2.95938
    R8        2.84508   0.00045   0.00064   0.00029   0.00093   2.84600
    R9        2.91608   0.00026   0.00029  -0.00034  -0.00006   2.91602
   R10        2.09558  -0.00021  -0.00002  -0.00044  -0.00045   2.09512
   R11        2.90458   0.00042   0.00029   0.00092   0.00121   2.90580
   R12        2.55708   0.00013  -0.00006  -0.00003  -0.00008   2.55700
   R13        2.98453  -0.00075   0.00158  -0.00387  -0.00229   2.98223
   R14        2.95227  -0.00076   0.00016  -0.00217  -0.00202   2.95025
   R15        2.09758  -0.00031   0.00001  -0.00067  -0.00065   2.09692
   R16        2.94694  -0.00021  -0.00020  -0.00058  -0.00077   2.94617
   R17        2.90620   0.00041  -0.00056   0.00197   0.00140   2.90760
   R18        2.96607  -0.00072  -0.00088  -0.00155  -0.00243   2.96365
   R19        2.07097  -0.00008   0.00013  -0.00027  -0.00014   2.07084
   R20        2.07021   0.00015   0.00007   0.00032   0.00039   2.07061
   R21        2.06937   0.00008   0.00016   0.00001   0.00017   2.06955
   R22        2.55103   0.00076   0.00009   0.00066   0.00075   2.55178
   R23        2.84674   0.00067   0.00084   0.00133   0.00217   2.84891
   R24        2.76125  -0.00025   0.00079  -0.00150  -0.00071   2.76054
   R25        2.05741  -0.00010   0.00003  -0.00023  -0.00020   2.05721
   R26        2.05326   0.00012   0.00010   0.00011   0.00021   2.05347
   R27        2.92019  -0.00053  -0.00099   0.00003  -0.00096   2.91923
   R28        2.06927  -0.00023   0.00019  -0.00055  -0.00036   2.06891
   R29        2.07877  -0.00005   0.00018  -0.00033  -0.00015   2.07862
   R30        2.78456   0.00268  -0.00017   0.00357   0.00340   2.78796
   R31        2.91673   0.00046   0.00093  -0.00039   0.00054   2.91727
   R32        2.07604   0.00007   0.00055  -0.00041   0.00014   2.07618
   R33        1.84857   0.00035  -0.00001   0.00035   0.00035   1.84892
   R34        2.90684   0.00032   0.00075  -0.00054   0.00021   2.90704
   R35        2.07748  -0.00036  -0.00007  -0.00062  -0.00069   2.07679
   R36        2.07543   0.00057   0.00015   0.00084   0.00099   2.07642
   R37        2.07139   0.00006   0.00021  -0.00008   0.00014   2.07153
   R38        2.07479  -0.00004   0.00015  -0.00022  -0.00007   2.07472
   R39        2.92095   0.00072   0.00063   0.00086   0.00149   2.92244
   R40        2.06676   0.00039  -0.00018   0.00111   0.00093   2.06769
   R41        2.07333  -0.00007   0.00016  -0.00027  -0.00011   2.07322
   R42        2.08147  -0.00009   0.00007  -0.00029  -0.00022   2.08125
   R43        2.07803   0.00001   0.00010  -0.00012  -0.00003   2.07801
   R44        2.95834   0.00051   0.00081   0.00010   0.00091   2.95925
   R45        2.07042   0.00013   0.00015   0.00006   0.00021   2.07063
   R46        2.07361  -0.00001  -0.00002  -0.00000  -0.00002   2.07359
   R47        2.96606  -0.00084   0.00046  -0.00178  -0.00131   2.96474
   R48        2.06357   0.00123   0.00070   0.00057   0.00127   2.06484
   R49        2.07158  -0.00012   0.00006  -0.00023  -0.00017   2.07141
   R50        2.94869  -0.00244  -0.00093  -0.00250  -0.00343   2.94526
   R51        2.08741   0.00003   0.00017  -0.00023  -0.00006   2.08735
   R52        2.94514  -0.00085  -0.00079   0.00031  -0.00048   2.94466
   R53        2.92672   0.00024   0.00043  -0.00008   0.00035   2.92708
   R54        2.08533   0.00026   0.00020   0.00019   0.00039   2.08572
   R55        2.91572   0.00042   0.00020   0.00081   0.00101   2.91674
   R56        2.07033   0.00039   0.00051  -0.00035   0.00015   2.07048
   R57        2.08339  -0.00002   0.00018  -0.00032  -0.00014   2.08326
   R58        2.91214   0.00110   0.00098   0.00132   0.00230   2.91443
   R59        2.07952  -0.00053  -0.00017  -0.00086  -0.00104   2.07849
   R60        2.07000   0.00061   0.00026   0.00015   0.00040   2.07041
   R61        2.92362   0.00083   0.00033   0.00142   0.00175   2.92538
   R62        2.08129  -0.00014   0.00005  -0.00036  -0.00032   2.08097
   R63        2.08417  -0.00026  -0.00014  -0.00042  -0.00056   2.08361
   R64        2.91311   0.00078   0.00078   0.00076   0.00154   2.91465
   R65        2.91413   0.00048   0.00040   0.00046   0.00086   2.91498
   R66        2.08531  -0.00029  -0.00009  -0.00053  -0.00063   2.08468
   R67        2.07700  -0.00020  -0.00006  -0.00037  -0.00043   2.07657
   R68        2.07350   0.00001   0.00015  -0.00016  -0.00001   2.07349
   R69        2.07310   0.00009   0.00012   0.00003   0.00016   2.07326
   R70        2.07753  -0.00017  -0.00007  -0.00031  -0.00038   2.07716
   R71        2.07379  -0.00010   0.00008  -0.00028  -0.00020   2.07359
   R72        2.07076  -0.00008   0.00014  -0.00029  -0.00015   2.07061
   R73        2.07358  -0.00005   0.00017  -0.00027  -0.00009   2.07349
   R74        2.07398  -0.00011  -0.00002  -0.00019  -0.00021   2.07377
   R75        2.07132  -0.00006   0.00002  -0.00022  -0.00020   2.07112
    A1        1.93525   0.00035   0.00044   0.00082   0.00125   1.93651
    A2        1.95164  -0.00012   0.00008   0.00005   0.00013   1.95177
    A3        1.94204  -0.00021  -0.00009  -0.00083  -0.00092   1.94112
    A4        1.87154  -0.00005  -0.00033   0.00016  -0.00017   1.87138
    A5        1.87938  -0.00005  -0.00015  -0.00060  -0.00075   1.87863
    A6        1.88066   0.00008   0.00002   0.00041   0.00043   1.88109
    A7        1.92734   0.00011   0.00052  -0.00039   0.00014   1.92748
    A8        1.93559   0.00026  -0.00015  -0.00113  -0.00127   1.93433
    A9        1.98464  -0.00079  -0.00149  -0.00304  -0.00453   1.98011
   A10        1.86480  -0.00005   0.00072   0.00061   0.00133   1.86612
   A11        1.72580   0.00029   0.00102   0.00295   0.00397   1.72977
   A12        2.00989   0.00023  -0.00029   0.00162   0.00133   2.01121
   A13        1.99966   0.00002  -0.00039  -0.00130  -0.00169   1.99797
   A14        1.81700  -0.00043   0.00003  -0.00052  -0.00049   1.81651
   A15        1.81886   0.00021   0.00060   0.00341   0.00402   1.82288
   A16        2.10977   0.00036  -0.00012   0.00155   0.00143   2.11120
   A17        1.83430  -0.00018  -0.00003  -0.00120  -0.00123   1.83307
   A18        1.86021   0.00004   0.00006  -0.00156  -0.00150   1.85871
   A19        2.00502  -0.00006   0.00023   0.00087   0.00108   2.00610
   A20        2.15549   0.00025   0.00046   0.00069   0.00112   2.15661
   A21        2.09941  -0.00013  -0.00002   0.00043   0.00040   2.09981
   A22        1.97776   0.00022   0.00064   0.00039   0.00104   1.97880
   A23        1.96056   0.00023   0.00066   0.00131   0.00198   1.96253
   A24        1.83784  -0.00021  -0.00006  -0.00069  -0.00074   1.83710
   A25        1.95798  -0.00049   0.00059  -0.00387  -0.00328   1.95470
   A26        1.85942   0.00021  -0.00073   0.00236   0.00163   1.86105
   A27        1.85879   0.00006  -0.00142   0.00087  -0.00056   1.85824
   A28        1.95331  -0.00051   0.00081  -0.00598  -0.00519   1.94812
   A29        1.92902   0.00019   0.00054   0.00297   0.00352   1.93254
   A30        1.92774   0.00003  -0.00087  -0.00084  -0.00172   1.92602
   A31        1.85548   0.00030  -0.00014   0.00301   0.00288   1.85836
   A32        1.90422   0.00008  -0.00022  -0.00064  -0.00088   1.90334
   A33        1.89174  -0.00007  -0.00012   0.00181   0.00168   1.89342
   A34        1.91438   0.00035  -0.00019   0.00233   0.00214   1.91652
   A35        1.94880  -0.00018   0.00058  -0.00177  -0.00119   1.94762
   A36        1.93671   0.00016   0.00091  -0.00024   0.00066   1.93737
   A37        1.87530  -0.00010  -0.00064   0.00024  -0.00041   1.87490
   A38        1.88589  -0.00016  -0.00052   0.00045  -0.00007   1.88581
   A39        1.90068  -0.00008  -0.00023  -0.00093  -0.00116   1.89953
   A40        2.10291  -0.00036  -0.00004  -0.00029  -0.00037   2.10255
   A41        2.01886  -0.00018   0.00057   0.00018   0.00073   2.01959
   A42        2.15957   0.00056  -0.00038   0.00074   0.00034   2.15991
   A43        2.12502   0.00017   0.00045   0.00048   0.00093   2.12595
   A44        2.09621  -0.00009  -0.00033   0.00011  -0.00022   2.09599
   A45        2.06053  -0.00008  -0.00022  -0.00042  -0.00063   2.05991
   A46        2.12070   0.00000  -0.00014   0.00021   0.00008   2.12078
   A47        2.09771   0.00002   0.00006   0.00014   0.00020   2.09791
   A48        2.05934  -0.00003  -0.00012  -0.00034  -0.00045   2.05889
   A49        1.93685   0.00061   0.00077   0.00341   0.00418   1.94103
   A50        1.94357   0.00020  -0.00123   0.00143   0.00020   1.94377
   A51        1.92885  -0.00011   0.00072   0.00047   0.00119   1.93004
   A52        1.93646  -0.00072  -0.00109  -0.00427  -0.00536   1.93110
   A53        1.84562  -0.00004   0.00187  -0.00041   0.00146   1.84708
   A54        1.86890   0.00002  -0.00095  -0.00088  -0.00183   1.86707
   A55        1.82420   0.00096   0.00123   0.00608   0.00731   1.83150
   A56        1.94842  -0.00065  -0.00011  -0.00060  -0.00075   1.94767
   A57        1.93270  -0.00034  -0.00246  -0.00357  -0.00603   1.92666
   A58        1.94698   0.00012   0.00101   0.00186   0.00286   1.94984
   A59        1.88936  -0.00015   0.00128  -0.00078   0.00051   1.88986
   A60        1.91965   0.00010  -0.00086  -0.00263  -0.00349   1.91616
   A61        1.93421   0.00128   0.00202   0.00275   0.00476   1.93898
   A62        1.94602   0.00025   0.00005   0.00030   0.00034   1.94636
   A63        1.91054  -0.00038  -0.00070  -0.00010  -0.00079   1.90975
   A64        1.89178   0.00058   0.00168   0.00219   0.00387   1.89565
   A65        1.93494   0.00012  -0.00111   0.00040  -0.00070   1.93423
   A66        1.91819  -0.00056  -0.00001  -0.00211  -0.00212   1.91607
   A67        1.85990  -0.00001   0.00014  -0.00067  -0.00054   1.85937
   A68        1.95034   0.00012   0.00095  -0.00105  -0.00010   1.95024
   A69        1.92084  -0.00033  -0.00066  -0.00028  -0.00095   1.91990
   A70        1.91166   0.00005   0.00025  -0.00039  -0.00014   1.91152
   A71        1.92546   0.00026   0.00005   0.00109   0.00115   1.92660
   A72        1.89494  -0.00005  -0.00020   0.00101   0.00081   1.89576
   A73        1.85809  -0.00004  -0.00045  -0.00034  -0.00079   1.85730
   A74        2.00172  -0.00004   0.00042   0.00040   0.00082   2.00254
   A75        1.90963  -0.00023   0.00089  -0.00226  -0.00137   1.90826
   A76        1.90620  -0.00005  -0.00084  -0.00028  -0.00112   1.90508
   A77        1.88026   0.00033   0.00036   0.00230   0.00267   1.88293
   A78        1.90304   0.00010  -0.00040   0.00077   0.00038   1.90342
   A79        1.85750  -0.00011  -0.00049  -0.00103  -0.00152   1.85598
   A80        1.93675   0.00013   0.00050  -0.00044   0.00007   1.93682
   A81        1.90077  -0.00005  -0.00014   0.00014   0.00000   1.90077
   A82        1.93703  -0.00005  -0.00017   0.00028   0.00011   1.93714
   A83        1.92170  -0.00008   0.00001  -0.00002  -0.00001   1.92169
   A84        1.89907   0.00012   0.00013   0.00093   0.00106   1.90013
   A85        1.86733  -0.00008  -0.00037  -0.00091  -0.00127   1.86605
   A86        1.81614   0.00017  -0.00055   0.00184   0.00128   1.81742
   A87        1.95946  -0.00004   0.00037  -0.00109  -0.00072   1.95874
   A88        1.92764  -0.00011  -0.00013   0.00015   0.00001   1.92765
   A89        1.95774   0.00025   0.00037  -0.00031   0.00006   1.95780
   A90        1.93337  -0.00024   0.00045  -0.00012   0.00034   1.93371
   A91        1.87062  -0.00004  -0.00048  -0.00044  -0.00091   1.86970
   A92        1.84961  -0.00032   0.00053   0.00072   0.00125   1.85086
   A93        1.93371  -0.00016   0.00019  -0.00217  -0.00198   1.93173
   A94        1.94122   0.00051  -0.00013   0.00202   0.00189   1.94311
   A95        1.95086   0.00006   0.00063  -0.00131  -0.00068   1.95018
   A96        1.92861  -0.00001  -0.00063   0.00076   0.00012   1.92873
   A97        1.86135  -0.00006  -0.00057  -0.00001  -0.00058   1.86077
   A98        1.81040   0.00046  -0.00023  -0.00146  -0.00169   1.80872
   A99        2.11275  -0.00066  -0.00122  -0.00295  -0.00416   2.10858
   A100       1.80564   0.00018   0.00104   0.00323   0.00428   1.80992
   A101       2.06923  -0.00053  -0.00263  -0.00140  -0.00405   2.06518
   A102       1.83670   0.00026   0.00229   0.00251   0.00479   1.84150
   A103       1.79350   0.00051   0.00192   0.00189   0.00380   1.79730
   A104       2.11855  -0.00412  -0.00426  -0.00707  -0.01133   2.10722
   A105       1.90865   0.00157   0.00002   0.00141   0.00143   1.91008
   A106       1.82240   0.00092   0.00152   0.00228   0.00380   1.82620
   A107       1.92598   0.00168   0.00030   0.00174   0.00205   1.92803
   A108       1.81335   0.00102   0.00247   0.00257   0.00504   1.81839
   A109       1.85166  -0.00091   0.00079  -0.00005   0.00074   1.85240
   A110       2.08434  -0.00241  -0.00240  -0.00113  -0.00353   2.08081
   A111       1.91647   0.00047  -0.00059  -0.00202  -0.00261   1.91386
   A112       1.83753   0.00088   0.00176   0.00298   0.00473   1.84225
   A113       1.89865   0.00060  -0.00039  -0.00199  -0.00238   1.89627
   A114       1.86813   0.00105   0.00196   0.00321   0.00517   1.87330
   A115       1.84273  -0.00038   0.00006  -0.00062  -0.00055   1.84218
   A116       1.94655   0.00129   0.00103   0.00262   0.00365   1.95020
   A117       1.92237  -0.00029  -0.00053   0.00080   0.00026   1.92263
   A118       1.92472  -0.00080  -0.00083  -0.00268  -0.00351   1.92121
   A119       1.89844  -0.00033  -0.00010   0.00048   0.00038   1.89881
   A120       1.90819  -0.00012   0.00015  -0.00096  -0.00081   1.90739
   A121       1.86142   0.00020   0.00027  -0.00038  -0.00011   1.86131
   A122       2.00685   0.00107   0.00058   0.00255   0.00313   2.00998
   A123       1.89537  -0.00038  -0.00007  -0.00127  -0.00134   1.89404
   A124       1.90949  -0.00023  -0.00022   0.00021  -0.00001   1.90948
   A125       1.89306  -0.00029  -0.00023  -0.00072  -0.00095   1.89211
   A126       1.89880  -0.00039  -0.00032  -0.00032  -0.00063   1.89817
   A127       1.85420   0.00016   0.00024  -0.00071  -0.00047   1.85373
   A128       1.92624   0.00023   0.00012   0.00133   0.00145   1.92768
   A129       1.96134   0.00014   0.00012   0.00117   0.00130   1.96263
   A130       1.87721  -0.00011  -0.00018  -0.00010  -0.00027   1.87694
   A131       1.92762  -0.00023   0.00017  -0.00067  -0.00051   1.92711
   A132       1.88368  -0.00007  -0.00028  -0.00119  -0.00146   1.88222
   A133       1.88494   0.00002   0.00001  -0.00067  -0.00066   1.88428
   A134       1.93111  -0.00002   0.00008  -0.00004   0.00004   1.93116
   A135       1.94074   0.00023   0.00034   0.00044   0.00078   1.94152
   A136       1.93841   0.00043   0.00034   0.00136   0.00170   1.94012
   A137       1.88261  -0.00013  -0.00014  -0.00038  -0.00052   1.88208
   A138       1.88186  -0.00020  -0.00011  -0.00055  -0.00066   1.88120
   A139       1.88691  -0.00035  -0.00056  -0.00092  -0.00148   1.88543
   A140       1.92863   0.00002   0.00020   0.00020   0.00040   1.92904
   A141       1.93402   0.00007   0.00005   0.00000   0.00005   1.93407
   A142       1.95358   0.00038   0.00050   0.00094   0.00145   1.95503
   A143       1.88060  -0.00006  -0.00006  -0.00025  -0.00031   1.88029
   A144       1.88403  -0.00013  -0.00012   0.00009  -0.00003   1.88400
   A145       1.88040  -0.00030  -0.00061  -0.00106  -0.00167   1.87872
   A146       1.93516   0.00013   0.00026   0.00007   0.00033   1.93549
   A147       1.93236   0.00012  -0.00019   0.00075   0.00056   1.93292
   A148       1.95051   0.00024   0.00058   0.00047   0.00104   1.95155
   A149       1.88391  -0.00020  -0.00040  -0.00084  -0.00124   1.88268
   A150       1.87878  -0.00019  -0.00026  -0.00046  -0.00071   1.87807
   A151       1.88051  -0.00014  -0.00003  -0.00007  -0.00010   1.88041
    D1       -0.74404  -0.00008  -0.00631   0.01242   0.00611  -0.73793
    D2        1.31973   0.00008  -0.00517   0.01222   0.00705   1.32678
    D3       -2.66550  -0.00006  -0.00704   0.01073   0.00369  -2.66181
    D4        1.34376   0.00001  -0.00637   0.01320   0.00683   1.35059
    D5       -2.87565   0.00017  -0.00524   0.01301   0.00777  -2.86788
    D6       -0.57770   0.00003  -0.00710   0.01151   0.00441  -0.57329
    D7       -2.83537  -0.00012  -0.00635   0.01318   0.00683  -2.82854
    D8       -0.77159   0.00005  -0.00522   0.01299   0.00777  -0.76383
    D9        1.52636  -0.00010  -0.00708   0.01149   0.00440   1.53076
   D10        1.08605   0.00052   0.00040  -0.00198  -0.00158   1.08446
   D11       -1.25571   0.00040   0.00084  -0.00259  -0.00175  -1.25746
   D12        3.08068   0.00044   0.00055  -0.00195  -0.00141   3.07927
   D13       -1.02057   0.00017  -0.00017  -0.00077  -0.00094  -1.02151
   D14        2.92086   0.00005   0.00028  -0.00138  -0.00111   2.91976
   D15        0.97406   0.00009  -0.00002  -0.00074  -0.00076   0.97330
   D16       -3.11135  -0.00019  -0.00056  -0.00407  -0.00463  -3.11598
   D17        0.83007  -0.00031  -0.00012  -0.00468  -0.00479   0.82528
   D18       -1.11672  -0.00027  -0.00041  -0.00404  -0.00445  -1.12118
   D19       -1.06789  -0.00043  -0.00187   0.00208   0.00020  -1.06769
   D20        3.09722  -0.00038  -0.00212   0.00229   0.00017   3.09739
   D21        1.04599  -0.00021  -0.00149   0.00315   0.00166   1.04765
   D22        1.03345  -0.00018  -0.00088   0.00134   0.00046   1.03391
   D23       -1.08463  -0.00013  -0.00112   0.00155   0.00043  -1.08419
   D24       -3.13586   0.00003  -0.00049   0.00242   0.00193  -3.13393
   D25        2.93041   0.00024   0.00065   0.00604   0.00669   2.93709
   D26        0.81233   0.00029   0.00041   0.00625   0.00666   0.81899
   D27       -1.23890   0.00046   0.00104   0.00711   0.00815  -1.23075
   D28        1.29675  -0.00021   0.00210  -0.00052   0.00159   1.29834
   D29       -1.08002   0.00072   0.00747   0.00615   0.01362  -1.06640
   D30       -3.07233   0.00029   0.00487   0.00282   0.00769  -3.06464
   D31       -0.74582  -0.00018   0.00151  -0.00054   0.00098  -0.74485
   D32       -3.12260   0.00075   0.00688   0.00613   0.01301  -3.10959
   D33        1.16827   0.00032   0.00428   0.00280   0.00708   1.17535
   D34       -2.72533  -0.00037   0.00019  -0.00357  -0.00338  -2.72871
   D35        1.18108   0.00056   0.00556   0.00310   0.00864   1.18972
   D36       -0.81123   0.00013   0.00295  -0.00023   0.00272  -0.80851
   D37        0.87917  -0.00013  -0.00010  -0.00204  -0.00213   0.87704
   D38       -2.49258   0.00015   0.00330   0.00766   0.01097  -2.48161
   D39        3.07573  -0.00042  -0.00058  -0.00268  -0.00326   3.07247
   D40       -0.29602  -0.00014   0.00281   0.00703   0.00984  -0.28618
   D41       -1.10640  -0.00028  -0.00061  -0.00477  -0.00538  -1.11178
   D42        1.80503  -0.00000   0.00278   0.00493   0.00772   1.81275
   D43       -0.58878   0.00039  -0.00070   0.00835   0.00765  -0.58113
   D44       -2.70981   0.00000  -0.00099   0.00815   0.00715  -2.70266
   D45        1.48673   0.00015  -0.00054   0.00932   0.00878   1.49551
   D46       -2.86700   0.00050  -0.00006   0.00943   0.00936  -2.85764
   D47        1.29515   0.00011  -0.00036   0.00923   0.00887   1.30401
   D48       -0.79149   0.00026   0.00009   0.01040   0.01049  -0.78100
   D49        1.32785   0.00046   0.00001   0.01134   0.01134   1.33919
   D50       -0.79319   0.00007  -0.00029   0.01114   0.01085  -0.78234
   D51       -2.87983   0.00022   0.00016   0.01231   0.01247  -2.86736
   D52       -2.95172   0.00027  -0.00084   0.00692   0.00608  -2.94564
   D53       -0.71020  -0.00002   0.00114   0.00302   0.00415  -0.70604
   D54        1.30589   0.00004  -0.00026   0.00430   0.00404   1.30994
   D55        0.41200  -0.00005  -0.00418  -0.00248  -0.00665   0.40535
   D56        2.65352  -0.00034  -0.00220  -0.00638  -0.00858   2.64494
   D57       -1.61357  -0.00029  -0.00359  -0.00510  -0.00869  -1.62226
   D58       -2.86941  -0.00018   0.00042  -0.00899  -0.00857  -2.87798
   D59        0.15810  -0.00026  -0.00158  -0.00889  -0.01047   0.14763
   D60        0.03015   0.00013   0.00402   0.00127   0.00529   0.03544
   D61        3.05766   0.00005   0.00202   0.00137   0.00339   3.06105
   D62        1.38884   0.00023   0.00349   0.00776   0.01124   1.40008
   D63       -0.67565   0.00006   0.00279   0.00586   0.00865  -0.66700
   D64       -2.76902   0.00000   0.00315   0.00223   0.00539  -2.76364
   D65       -0.85401   0.00016   0.00148   0.00899   0.01046  -0.84355
   D66       -2.91849  -0.00002   0.00078   0.00709   0.00787  -2.91062
   D67        1.27131  -0.00007   0.00115   0.00346   0.00461   1.27592
   D68       -2.88157   0.00022   0.00331   0.00859   0.01190  -2.86967
   D69        1.33713   0.00004   0.00261   0.00669   0.00931   1.34644
   D70       -0.75625  -0.00001   0.00298   0.00306   0.00605  -0.75020
   D71        0.75732  -0.00006  -0.00255  -0.00323  -0.00578   0.75154
   D72       -1.35731  -0.00028  -0.00399  -0.00480  -0.00879  -1.36610
   D73        2.89905   0.00001  -0.00343  -0.00214  -0.00557   2.89349
   D74        3.00918   0.00002  -0.00058  -0.00489  -0.00547   3.00371
   D75        0.89456  -0.00021  -0.00201  -0.00646  -0.00848   0.88608
   D76       -1.13227   0.00008  -0.00145  -0.00380  -0.00526  -1.13752
   D77       -1.24606   0.00005  -0.00199  -0.00359  -0.00558  -1.25164
   D78        2.92249  -0.00018  -0.00343  -0.00516  -0.00859   2.91391
   D79        0.89567   0.00011  -0.00286  -0.00250  -0.00537   0.89031
   D80       -2.95634  -0.00020   0.00191  -0.01609  -0.01418  -2.97052
   D81        1.25004  -0.00019   0.00246  -0.01679  -0.01432   1.23572
   D82       -0.87396  -0.00007   0.00171  -0.01420  -0.01248  -0.88644
   D83       -0.84860  -0.00007   0.00295  -0.01399  -0.01104  -0.85964
   D84       -2.92541  -0.00006   0.00351  -0.01468  -0.01118  -2.93659
   D85        1.23378   0.00006   0.00275  -0.01209  -0.00934   1.22444
   D86        1.18806   0.00005   0.00262  -0.01058  -0.00796   1.18010
   D87       -0.88874   0.00005   0.00318  -0.01128  -0.00810  -0.89685
   D88       -3.01274   0.00017   0.00242  -0.00868  -0.00626  -3.01900
   D89        0.57995  -0.00029  -0.00208  -0.00937  -0.01146   0.56849
   D90       -2.62452   0.00007   0.00061   0.00147   0.00208  -2.62244
   D91       -1.54335   0.00004  -0.00329  -0.00570  -0.00899  -1.55234
   D92        1.53536   0.00039  -0.00059   0.00515   0.00455   1.53991
   D93        2.69483  -0.00018  -0.00290  -0.00743  -0.01033   2.68450
   D94       -0.50964   0.00018  -0.00020   0.00342   0.00321  -0.50643
   D95        1.54513   0.00039   0.00125   0.00430   0.00556   1.55069
   D96       -0.60043   0.00022   0.00100   0.00383   0.00483  -0.59560
   D97       -2.63750   0.00043   0.00179   0.00464   0.00642  -2.63108
   D98       -2.58401  -0.00018   0.00155  -0.00420  -0.00265  -2.58666
   D99        1.55362  -0.00035   0.00130  -0.00467  -0.00338   1.55024
   D100      -0.48345  -0.00013   0.00208  -0.00387  -0.00179  -0.48524
   D101      -0.57054   0.00018   0.00120   0.00001   0.00121  -0.56933
   D102      -2.71610   0.00001   0.00095  -0.00046   0.00049  -2.71561
   D103       1.53001   0.00022   0.00173   0.00034   0.00208   1.53209
   D104      -0.16130   0.00035   0.00188   0.00935   0.01122  -0.15007
   D105       3.03880   0.00030   0.00357   0.00594   0.00950   3.04830
   D106       3.04845  -0.00000  -0.00107  -0.00238  -0.00346   3.04499
   D107      -0.03463  -0.00006   0.00062  -0.00580  -0.00518  -0.03982
   D108       1.10323  -0.00009  -0.00088  -0.00841  -0.00930   1.09393
   D109      -3.01346  -0.00043  -0.00263  -0.01042  -0.01305  -3.02652
   D110      -0.93853  -0.00034  -0.00414  -0.01029  -0.01444  -0.95297
   D111      -2.10353   0.00024   0.00192   0.00279   0.00472  -2.09881
   D112       0.06297  -0.00010   0.00017   0.00078   0.00096   0.06393
   D113       2.13790  -0.00001  -0.00134   0.00091  -0.00043   2.13747
   D114      -0.18004  -0.00015  -0.00301  -0.00435  -0.00736  -0.18740
   D115       3.07321  -0.00008  -0.00106  -0.00449  -0.00554   3.06767
   D116       2.90420  -0.00010  -0.00467  -0.00099  -0.00566   2.89854
   D117      -0.12573  -0.00003  -0.00272  -0.00112  -0.00384  -0.12957
   D118      -2.61415   0.00000  -0.00040   0.00387   0.00346  -2.61069
   D119      -0.50703   0.00039   0.00151   0.00952   0.01103  -0.49600
   D120       1.63821  -0.00018  -0.00140   0.00314   0.00175   1.63995
   D121       1.49850  -0.00018   0.00143   0.00265   0.00407   1.50258
   D122      -2.67756   0.00021   0.00334   0.00830   0.01165  -2.66592
   D123      -0.53233  -0.00036   0.00043   0.00192   0.00236  -0.52997
   D124      -0.52202   0.00018   0.00205   0.00604   0.00808  -0.51394
   D125       1.58510   0.00057   0.00396   0.01169   0.01565   1.60075
   D126      -2.55285  -0.00001   0.00105   0.00531   0.00637  -2.54648
   D127      -3.02911   0.00009  -0.00234   0.01055   0.00821  -3.02089
   D128       1.14600   0.00021  -0.00351   0.00654   0.00303   1.14903
   D129      -0.96844   0.00011  -0.00394   0.00917   0.00524  -0.96320
   D130      -0.53660  -0.00043  -0.00006  -0.00855  -0.00861  -0.54521
   D131      -2.68403  -0.00048   0.00180  -0.00919  -0.00739  -2.69142
   D132       1.57702  -0.00059   0.00108  -0.00955  -0.00846   1.56855
   D133       1.49722   0.00043   0.00206  -0.00014   0.00192   1.49914
   D134      -0.65021   0.00038   0.00391  -0.00078   0.00314  -0.64707
   D135      -2.67235   0.00027   0.00320  -0.00114   0.00206  -2.67029
   D136      -2.68926   0.00039   0.00376  -0.00167   0.00208  -2.68717
   D137       1.44650   0.00033   0.00561  -0.00231   0.00330   1.44980
   D138      -0.57564   0.00023   0.00490  -0.00267   0.00223  -0.57341
   D139       1.13468   0.00043  -0.00095   0.00345   0.00250   1.13717
   D140      -3.00557   0.00027  -0.00110   0.00313   0.00203  -3.00354
   D141      -0.97562   0.00033  -0.00173   0.00392   0.00219  -0.97343
   D142      -3.01507   0.00020  -0.00258   0.00381   0.00122  -3.01385
   D143      -0.87213   0.00004  -0.00273   0.00349   0.00076  -0.87138
   D144       1.15782   0.00010  -0.00337   0.00428   0.00091   1.15873
   D145      -0.96348  -0.00008  -0.00309   0.00192  -0.00117  -0.96465
   D146       1.17946  -0.00024  -0.00324   0.00160  -0.00164   1.17782
   D147      -3.07377  -0.00018  -0.00387   0.00239  -0.00148  -3.07525
   D148      -0.95539   0.00011   0.00274   0.00127   0.00402  -0.95137
   D149       1.15035   0.00007   0.00290   0.00115   0.00405   1.15440
   D150      -3.09147  -0.00000   0.00254   0.00059   0.00313  -3.08834
   D151       1.17527   0.00002   0.00444   0.00035   0.00479   1.18006
   D152      -3.00218  -0.00001   0.00460   0.00022   0.00483  -2.99735
   D153      -0.96081  -0.00008   0.00424  -0.00034   0.00390  -0.95690
   D154      -3.09883   0.00012   0.00385   0.00076   0.00461  -3.09422
   D155      -0.99309   0.00009   0.00401   0.00063   0.00465  -0.98844
   D156       1.04828   0.00001   0.00365   0.00007   0.00372   1.05200
   D157       0.10862  -0.00010   0.00176  -0.00751  -0.00576   0.10286
   D158       2.22800  -0.00031   0.00295  -0.00988  -0.00694   2.22106
   D159      -1.98805  -0.00017   0.00227  -0.01000  -0.00773  -1.99579
   D160       2.23080   0.00010   0.00205  -0.00784  -0.00579   2.22501
   D161      -1.93301  -0.00012   0.00325  -0.01021  -0.00696  -1.93997
   D162       0.13413   0.00002   0.00257  -0.01032  -0.00776   0.12637
   D163      -1.96297   0.00006   0.00201  -0.00868  -0.00668  -1.96964
   D164       0.15641  -0.00016   0.00320  -0.01105  -0.00785   0.14856
   D165       2.22354  -0.00001   0.00252  -0.01116  -0.00865   2.21490
   D166       0.40624   0.00011  -0.00226   0.00460   0.00234   0.40858
   D167       2.80639  -0.00088  -0.00672  -0.00269  -0.00942   2.79697
   D168      -1.48480  -0.00034  -0.00412   0.00073  -0.00339  -1.48819
   D169      -1.70206   0.00047  -0.00318   0.00753   0.00435  -1.69771
   D170       0.69809  -0.00051  -0.00765   0.00024  -0.00741   0.69068
   D171       2.69008   0.00002  -0.00504   0.00366  -0.00138   2.68871
   D172       2.51113   0.00052  -0.00245   0.00788   0.00543   2.51656
   D173      -1.37191  -0.00047  -0.00691   0.00060  -0.00632  -1.37824
   D174       0.62008   0.00007  -0.00431   0.00402  -0.00029   0.61979
   D175       1.06334  -0.00047  -0.00038  -0.00293  -0.00331   1.06003
   D176      -2.94660  -0.00022  -0.00396  -0.00564  -0.00960  -2.95620
   D177      -0.97120  -0.00012  -0.00229  -0.00397  -0.00626  -0.97746
   D178      -1.20597   0.00021   0.00462   0.00485   0.00948  -1.19649
   D179       1.06727   0.00046   0.00104   0.00215   0.00319   1.07046
   D180       3.04267   0.00056   0.00271   0.00382   0.00653   3.04920
   D181       3.06191  -0.00021   0.00178   0.00110   0.00287   3.06478
   D182      -0.94803   0.00005  -0.00181  -0.00160  -0.00342  -0.95145
   D183       1.02737   0.00015  -0.00014   0.00006  -0.00007   1.02729
   D184       1.21081  -0.00041  -0.01032  -0.01972  -0.03004   1.18076
   D185      -0.99858   0.00037  -0.00718  -0.01391  -0.02109  -1.01967
   D186      -2.97474   0.00014  -0.00788  -0.01380  -0.02168  -2.99641
   D187      -1.05499  -0.00059  -0.00655  -0.01679  -0.02334  -1.07833
   D188       3.01881   0.00019  -0.00341  -0.01098  -0.01439   3.00442
   D189       1.04265  -0.00004  -0.00411  -0.01087  -0.01497   1.02768
   D190      -3.03330  -0.00079  -0.00888  -0.01879  -0.02767  -3.06097
   D191       1.04050  -0.00001  -0.00574  -0.01298  -0.01872   1.02178
   D192      -0.93566  -0.00024  -0.00643  -0.01287  -0.01930  -0.95497
   D193       0.92619   0.00146   0.00368   0.01249   0.01617   0.94237
   D194       3.01678   0.00138   0.00322   0.01198   0.01520   3.03198
   D195      -1.16996   0.00145   0.00344   0.01271   0.01615  -1.15381
   D196      -2.98378  -0.00136  -0.00192   0.00549   0.00357  -2.98021
   D197      -0.89319  -0.00144  -0.00238   0.00498   0.00260  -0.89060
   D198       1.20325  -0.00137  -0.00216   0.00571   0.00355   1.20679
   D199      -1.03007   0.00013   0.00152   0.00925   0.01077  -1.01930
   D200       1.06052   0.00005   0.00106   0.00874   0.00979   1.07031
   D201      -3.12623   0.00012   0.00128   0.00947   0.01074  -3.11548
   D202       2.94622   0.00052   0.01017  -0.00028   0.00989   2.95611
   D203       0.83652   0.00028   0.00998  -0.00317   0.00681   0.84333
   D204      -1.21330   0.00069   0.01047  -0.00157   0.00890  -1.20439
   D205      -1.11924  -0.00029   0.00697  -0.00605   0.00092  -1.11832
   D206       3.05424  -0.00053   0.00678  -0.00894  -0.00216   3.05208
   D207       1.00442  -0.00011   0.00728  -0.00734  -0.00007   1.00436
   D208       0.86410   0.00009   0.00785  -0.00611   0.00174   0.86584
   D209      -1.24559  -0.00015   0.00766  -0.00900  -0.00135  -1.24694
   D210       2.98777   0.00027   0.00816  -0.00740   0.00075   2.98852
   D211      -3.06721  -0.00018   0.00023  -0.00547  -0.00524  -3.07246
   D212      -0.94318  -0.00012   0.00028  -0.00562  -0.00535  -0.94853
   D213       1.07359  -0.00026   0.00040  -0.00706  -0.00666   1.06693
   D214      -0.94360   0.00006   0.00015  -0.00246  -0.00231  -0.94590
   D215       1.18044   0.00013   0.00020  -0.00261  -0.00241   1.17803
   D216      -3.08598  -0.00002   0.00033  -0.00405  -0.00372  -3.08970
   D217       1.08276   0.00006   0.00050  -0.00317  -0.00267   1.08009
   D218      -3.07639   0.00012   0.00055  -0.00332  -0.00277  -3.07916
   D219      -1.05962  -0.00002   0.00067  -0.00476  -0.00408  -1.06370
   D220       3.00571  -0.00007   0.00208  -0.00960  -0.00753   2.99819
   D221      -1.11741  -0.00009   0.00247  -0.00864  -0.00617  -1.12358
   D222       0.95488  -0.00005   0.00245  -0.00885  -0.00640   0.94848
   D223       0.88042  -0.00008   0.00195  -0.00915  -0.00720   0.87322
   D224       3.04048  -0.00011   0.00234  -0.00819  -0.00585   3.03463
   D225      -1.17041  -0.00007   0.00231  -0.00840  -0.00608  -1.17649
   D226      -1.12937   0.00009   0.00195  -0.00776  -0.00581  -1.13518
   D227       1.03069   0.00007   0.00235  -0.00680  -0.00445   1.02624
   D228       3.10298   0.00011   0.00232  -0.00700  -0.00468   3.09830
   D229       1.09705   0.00005   0.00010  -0.00123  -0.00114   1.09591
   D230      -0.99473   0.00007  -0.00001  -0.00101  -0.00102  -0.99575
   D231      -3.09682   0.00007   0.00023  -0.00106  -0.00083  -3.09765
   D232      -1.08238  -0.00013  -0.00027  -0.00321  -0.00347  -1.08585
   D233       3.10903  -0.00012  -0.00037  -0.00298  -0.00335   3.10567
   D234       1.00693  -0.00012  -0.00013  -0.00303  -0.00316   1.00377
   D235      -3.13930   0.00001  -0.00021  -0.00131  -0.00152  -3.14082
   D236       1.05211   0.00003  -0.00031  -0.00109  -0.00140   1.05070
   D237      -1.04999   0.00003  -0.00007  -0.00113  -0.00121  -1.05119
   D238      -1.02977  -0.00015   0.00308  -0.00721  -0.00413  -1.03390
   D239      -3.11304  -0.00012   0.00300  -0.00704  -0.00404  -3.11707
   D240       1.07065  -0.00005   0.00341  -0.00633  -0.00292   1.06773
   D241       1.12952   0.00009   0.00345  -0.00514  -0.00168   1.12784
   D242      -0.95375   0.00011   0.00337  -0.00496  -0.00159  -0.95534
   D243      -3.05325   0.00019   0.00378  -0.00426  -0.00048  -3.05372
   D244      -3.09752  -0.00011   0.00322  -0.00735  -0.00413  -3.10165
   D245       1.10240  -0.00009   0.00314  -0.00717  -0.00404   1.09836
   D246      -0.99710  -0.00001   0.00354  -0.00647  -0.00292  -1.00002
         Item               Value     Threshold  Converged?
 Maximum Force            0.004122     0.000450     NO 
 RMS     Force            0.000470     0.000300     NO 
 Maximum Displacement     0.296994     0.001800     NO 
 RMS     Displacement     0.056232     0.001200     NO 
 Predicted change in Energy=-2.601835D-04
 Lowest energy point so far.  Saving SCF results.
 GradGradGradGradGradGradGradGradGradGradGradGradGradGradGradGradGradGrad

 Leave Link  103 at Mon Jul 28 18:59:43 2025, MaxMem=  1073741824 cpu:               1.1 elap:               0.2
 (Enter /app/gaussian/g16/l202.exe)
 Stoichiometry    C27H44O
 Framework group  C1[X(C27H44O)]
 Deg. of freedom   210
 Full point group                 C1      NOp   1
 RotChk:  IX=0 Diff= 5.70D-03
 Largest Abelian subgroup         C1      NOp   1
 Largest concise Abelian subgroup C1      NOp   1
                         Standard orientation:                         
 ---------------------------------------------------------------------
 Center     Atomic      Atomic             Coordinates (Angstroms)
 Number     Number       Type             X           Y           Z
 ---------------------------------------------------------------------
      1          6           0       -1.091107   -0.471975   -0.650619
      2          6           0       -0.648166    0.900629   -0.082459
      3          6           0        0.245701    0.704060    1.184763
      4          6           0        1.531511   -0.038312    0.932303
      5          6           0        2.366952    0.493315   -0.244079
      6          6           0        3.550671   -0.465912   -0.655398
      7          6           0        3.051830   -1.645054   -1.545007
      8          6           0        4.194859   -1.100612    0.589421
      9          6           0        3.448816   -1.378384    1.680153
     10          6           0        2.064160   -0.928766    1.800789
     11          6           0        5.659468   -1.436897    0.468525
     12          6           0        6.507834   -0.166102    0.241093
     13          8           0        7.659181   -0.616524   -0.563956
     14          6           0        5.700930    0.933879   -0.481489
     15          6           0        4.653750    0.331836   -1.434090
     16          6           0        1.485181    0.892462   -1.469035
     17          6           0        0.198453    1.673072   -1.113221
     18          6           0       -0.742787    0.232813    2.271941
     19          6           0       -2.076537    0.976002    1.924037
     20          6           0       -1.819300    1.714793    0.564116
     21          6           0       -3.051269    2.152187   -0.284449
     22          6           0       -3.962042    1.091005   -0.971849
     23          6           0       -4.826320    0.159081   -0.096154
     24          6           0       -5.845692   -0.633779   -0.939241
     25          6           0       -6.819800   -1.523258   -0.129068
     26          6           0       -7.913638   -2.101772   -1.049790
     27          6           0       -6.094300   -2.657773    0.623238
     28          6           0       -3.906933    3.155543    0.528163
     29          1           0       -0.260902   -1.186164   -0.641041
     30          1           0       -1.903582   -0.911831   -0.064534
     31          1           0       -1.437438   -0.379496   -1.685702
     32          1           0        0.556768    1.730473    1.465671
     33          1           0        2.831674    1.429933    0.127522
     34          1           0        3.853280   -2.382193   -1.668161
     35          1           0        2.764961   -1.302075   -2.545340
     36          1           0        2.195220   -2.148851   -1.084814
     37          1           0        3.890622   -1.905936    2.523726
     38          1           0        1.499428   -1.246372    2.673150
     39          1           0        6.016099   -1.987291    1.345174
     40          1           0        5.838089   -2.077664   -0.407498
     41          1           0        6.885931    0.218127    1.198423
     42          1           0        8.316578    0.100292   -0.670172
     43          1           0        6.390043    1.594694   -1.025755
     44          1           0        5.202016    1.556421    0.274076
     45          1           0        4.190045    1.119733   -2.038957
     46          1           0        5.164269   -0.339201   -2.137264
     47          1           0        1.191002   -0.010127   -2.013100
     48          1           0        2.086002    1.490557   -2.165401
     49          1           0        0.456960    2.658906   -0.695760
     50          1           0       -0.373019    1.855693   -2.034775
     51          1           0       -0.390165    0.467337    3.282525
     52          1           0       -0.878312   -0.854905    2.221300
     53          1           0       -2.904925    0.267410    1.849239
     54          1           0       -2.348323    1.694492    2.705981
     55          1           0       -1.350315    2.677464    0.835054
     56          1           0       -2.622006    2.725115   -1.124492
     57          1           0       -3.362557    0.475999   -1.652169
     58          1           0       -4.647605    1.663770   -1.617803
     59          1           0       -5.370550    0.745359    0.658726
     60          1           0       -4.186966   -0.541814    0.451876
     61          1           0       -6.438283    0.079384   -1.533277
     62          1           0       -5.307886   -1.266439   -1.664656
     63          1           0       -7.313167   -0.880062    0.619172
     64          1           0       -7.470646   -2.753417   -1.815717
     65          1           0       -8.463062   -1.303563   -1.564514
     66          1           0       -8.636540   -2.698359   -0.479551
     67          1           0       -5.552432   -3.303218   -0.082445
     68          1           0       -6.811167   -3.285455    1.167458
     69          1           0       -5.371689   -2.271668    1.350809
     70          1           0       -3.295871    3.996626    0.879051
     71          1           0       -4.718355    3.562909   -0.088211
     72          1           0       -4.360033    2.685113    1.408268
 ---------------------------------------------------------------------
 Rotational constants (GHZ):           0.4079243           0.0651598           0.0629638
 Leave Link  202 at Mon Jul 28 18:59:43 2025, MaxMem=  1073741824 cpu:               0.1 elap:               0.0
 (Enter /app/gaussian/g16/l301.exe)
 Standard basis: 6-31+G (6D, 7F)
 Ernie: Thresh=  0.10000D-02 Tol=  0.10000D-05 Strict=F.
 There are   452 symmetry adapted cartesian basis functions of A   symmetry.
 There are   452 symmetry adapted basis functions of A   symmetry.
   452 basis functions,   904 primitive gaussians,   452 cartesian basis functions
   107 alpha electrons      107 beta electrons
       nuclear repulsion energy      2773.5925562098 Hartrees.
 IExCor=  402 DFT=T Ex+Corr=B3LYP ExCW=0 ScaHFX=  0.200000
 ScaDFX=  0.800000  0.720000  1.000000  0.810000 ScalE2=  1.000000  1.000000
 IRadAn=      5 IRanWt=     -1 IRanGd=            0 ICorTp=0 IEmpDi=  4
 NAtoms=   72 NActive=   72 NUniq=   72 SFac= 1.00D+00 NAtFMM=   60 NAOKFM=T Big=T
 Integral buffers will be    131072 words long.
 Raffenetti 2 integral format.
 Two-electron integral symmetry is turned on.
 Leave Link  301 at Mon Jul 28 18:59:43 2025, MaxMem=  1073741824 cpu:               0.4 elap:               0.1
 (Enter /app/gaussian/g16/l302.exe)
 NPDir=0 NMtPBC=     1 NCelOv=     1 NCel=       1 NClECP=     1 NCelD=      1
         NCelK=      1 NCelE2=     1 NClLst=     1 CellRange=     0.0.
 One-electron integrals computed using PRISM.
 One-electron integral symmetry used in STVInt
 NBasis=   452 RedAO= T EigKep=  1.31D-06  NBF=   452
 NBsUse=   449 1.00D-06 EigRej=  7.60D-07 NBFU=   449
 Precomputing XC quadrature grid using
 IXCGrd= 4 IRadAn=           5 IRanWt=          -1 IRanGd=           0 AccXCQ= 0.00D+00.
 Generated NRdTot=       0 NPtTot=           0 NUsed=           0 NTot=          32
 NSgBfM=   438   438   438   438   438 MxSgAt=    72 MxSgA2=    72.
 Leave Link  302 at Mon Jul 28 18:59:45 2025, MaxMem=  1073741824 cpu:              10.6 elap:               1.3
 (Enter /app/gaussian/g16/l303.exe)
 DipDrv:  MaxL=1.
 Leave Link  303 at Mon Jul 28 18:59:45 2025, MaxMem=  1073741824 cpu:               0.5 elap:               0.1
 (Enter /app/gaussian/g16/l401.exe)
 Initial guess from the checkpoint file:  "/work/scr/Gau-256556.chk"
 B after Tr=     0.000000    0.000000    0.000000
         Rot=    0.999999    0.000447    0.000588   -0.001291 Ang=   0.17 deg.
 Guess basis will be translated and rotated to current coordinates.
 JPrj=2 DoOrth=T DoCkMO=T.
 Generating alternative initial guess.
 ExpMin= 4.38D-02 ExpMax= 5.48D+03 ExpMxC= 8.25D+02 IAcc=3 IRadAn=         5 AccDes= 0.00D+00
 Harris functional with IExCor=  402 and IRadAn=       5 diagonalized for initial guess.
 HarFok:  IExCor=  402 AccDes= 0.00D+00 IRadAn=         5 IDoV= 1 UseB2=F ITyADJ=14
 ICtDFT=  3500011 ScaDFX=  1.000000  1.000000  1.000000  1.000000
 FoFCou: FMM=F IPFlag=           0 FMFlag=      100000 FMFlg1=        2001
         NFxFlg=           0 DoJE=T BraDBF=F KetDBF=T FulRan=T
         wScrn=  0.000000 ICntrl=       500 IOpCl=  0 I1Cent=   200000004 NGrid=           0
         NMat0=    1 NMatS0=      1 NMatT0=    0 NMatD0=    1 NMtDS0=    0 NMtDT0=    0
 Petite list used in FoFCou.
 Harris En= -1130.40105671112    
 Leave Link  401 at Mon Jul 28 18:59:54 2025, MaxMem=  1073741824 cpu:              75.6 elap:               9.5
 (Enter /app/gaussian/g16/l502.exe)
 Integral symmetry usage will be decided dynamically.
 Closed shell SCF:
 Using DIIS extrapolation, IDIIS=  1040.
 NGot=  1073741824 LenX=  1073322182 LenY=  1073117426
 Requested convergence on RMS density matrix=1.00D-08 within 128 cycles.
 Requested convergence on MAX density matrix=1.00D-06.
 Requested convergence on             energy=1.00D-06.
 No special actions if energy rises.
 Fock matrices will be formed incrementally for  20 cycles.

 Cycle   1  Pass 1  IDiag  1:
 FoFJK:  IHMeth= 1 ICntrl=       0 DoSepK=F KAlg= 0 I1Cent=           0 FoldK=F
 IRaf= 990000000 NMat=       1 IRICut=       1 DoRegI=T DoRafI=F ISym2E= 0 IDoP0=0 IntGTp=1.
 FoFCou: FMM=T IPFlag=           0 FMFlag=      100000 FMFlg1=        2001
         NFxFlg=           0 DoJE=F BraDBF=F KetDBF=F FulRan=T
         wScrn=  0.000000 ICntrl=         0 IOpCl=  0 I1Cent=           0 NGrid=           0
         NMat0=    1 NMatS0=      1 NMatT0=    0 NMatD0=    1 NMtDS0=    0 NMtDT0=    0
 Symmetry not used in FoFCou.
 FMM levels:  10  Number of levels for PrismC:   9
 E= -1130.31485862736    
 DIIS: error= 7.27D-03 at cycle   1 NSaved=   1.
 NSaved= 1 IEnMin= 1 EnMin= -1130.31485862736     IErMin= 1 ErrMin= 7.27D-03
 ErrMax= 7.27D-03  0.00D+00 EMaxC= 1.00D-01 BMatC= 1.45D-02 BMatP= 1.45D-02
 IDIUse=3 WtCom= 9.27D-01 WtEn= 7.27D-02
 Coeff-Com:  0.100D+01
 Coeff-En:   0.100D+01
 Coeff:      0.100D+01
 Gap=     0.456 Goal=   None    Shift=    0.000
 GapD=    0.456 DampG=2.000 DampE=1.000 DampFc=2.0000 IDamp=-1.
 RMSDP=3.08D-03 MaxDP=3.45D-01              OVMax= 1.72D-02

 Cycle   2  Pass 1  IDiag  1:
 RMSU=  3.01D-03    CP:  1.01D+00
 E= -1130.32492115140     Delta-E=       -0.010062524034 Rises=F Damp=F
 DIIS: error= 1.69D-04 at cycle   2 NSaved=   2.
 NSaved= 2 IEnMin= 2 EnMin= -1130.32492115140     IErMin= 2 ErrMin= 1.69D-04
 ErrMax= 1.69D-04  0.00D+00 EMaxC= 1.00D-01 BMatC= 5.15D-05 BMatP= 1.45D-02
 IDIUse=3 WtCom= 9.98D-01 WtEn= 1.69D-03
 Coeff-Com: -0.961D-02 0.101D+01
 Coeff-En:   0.000D+00 0.100D+01
 Coeff:     -0.959D-02 0.101D+01
 Gap=     0.173 Goal=   None    Shift=    0.000
 RMSDP=7.79D-04 MaxDP=4.84D-02 DE=-1.01D-02 OVMax= 3.55D-03

 Cycle   3  Pass 1  IDiag  1:
 RMSU=  7.58D-04    CP:  1.01D+00  9.63D-01
 E= -1130.32492750546     Delta-E=       -0.000006354063 Rises=F Damp=F
 DIIS: error= 2.60D-04 at cycle   3 NSaved=   3.
 NSaved= 3 IEnMin= 3 EnMin= -1130.32492750546     IErMin= 2 ErrMin= 1.69D-04
 ErrMax= 2.60D-04  0.00D+00 EMaxC= 1.00D-01 BMatC= 7.50D-05 BMatP= 5.15D-05
 IDIUse=3 WtCom= 3.83D-01 WtEn= 6.17D-01
 Coeff-Com: -0.824D-02 0.562D+00 0.446D+00
 Coeff-En:   0.000D+00 0.475D+00 0.525D+00
 Coeff:     -0.315D-02 0.508D+00 0.495D+00
 Gap=     0.172 Goal=   None    Shift=    0.000
 RMSDP=4.57D-04 MaxDP=2.47D-02 DE=-6.35D-06 OVMax= 2.96D-03

 Cycle   4  Pass 1  IDiag  1:
 RMSU=  1.71D-04    CP:  1.01D+00  9.97D-01  4.67D-01
 E= -1130.32499906541     Delta-E=       -0.000071559949 Rises=F Damp=F
 DIIS: error= 1.15D-04 at cycle   4 NSaved=   4.
 NSaved= 4 IEnMin= 4 EnMin= -1130.32499906541     IErMin= 4 ErrMin= 1.15D-04
 ErrMax= 1.15D-04  0.00D+00 EMaxC= 1.00D-01 BMatC= 7.30D-06 BMatP= 5.15D-05
 IDIUse=3 WtCom= 9.99D-01 WtEn= 1.15D-03
 Coeff-Com: -0.273D-02 0.147D+00 0.263D+00 0.593D+00
 Coeff-En:   0.000D+00 0.000D+00 0.365D-01 0.963D+00
 Coeff:     -0.272D-02 0.147D+00 0.262D+00 0.593D+00
 Gap=     0.172 Goal=   None    Shift=    0.000
 RMSDP=1.09D-04 MaxDP=4.74D-03 DE=-7.16D-05 OVMax= 1.38D-03

 Cycle   5  Pass 1  IDiag  1:
 RMSU=  6.85D-05    CP:  1.01D+00  9.97D-01  5.38D-01  6.45D-01
 E= -1130.32500517762     Delta-E=       -0.000006112211 Rises=F Damp=F
 DIIS: error= 5.73D-05 at cycle   5 NSaved=   5.
 NSaved= 5 IEnMin= 5 EnMin= -1130.32500517762     IErMin= 5 ErrMin= 5.73D-05
 ErrMax= 5.73D-05  0.00D+00 EMaxC= 1.00D-01 BMatC= 1.43D-06 BMatP= 7.30D-06
 IDIUse=1 WtCom= 1.00D+00 WtEn= 0.00D+00
 Coeff-Com: -0.173D-03-0.142D-01 0.872D-01 0.399D+00 0.528D+00
 Coeff:     -0.173D-03-0.142D-01 0.872D-01 0.399D+00 0.528D+00
 Gap=     0.172 Goal=   None    Shift=    0.000
 RMSDP=3.66D-05 MaxDP=1.91D-03 DE=-6.11D-06 OVMax= 5.06D-04

 Cycle   6  Pass 1  IDiag  1:
 RMSU=  2.47D-05    CP:  1.01D+00  9.97D-01  5.49D-01  7.03D-01  6.61D-01
 E= -1130.32500665523     Delta-E=       -0.000001477612 Rises=F Damp=F
 DIIS: error= 6.43D-06 at cycle   6 NSaved=   6.
 NSaved= 6 IEnMin= 6 EnMin= -1130.32500665523     IErMin= 6 ErrMin= 6.43D-06
 ErrMax= 6.43D-06  0.00D+00 EMaxC= 1.00D-01 BMatC= 5.00D-08 BMatP= 1.43D-06
 IDIUse=1 WtCom= 1.00D+00 WtEn= 0.00D+00
 Coeff-Com:  0.347D-04-0.145D-01 0.344D-01 0.184D+00 0.281D+00 0.515D+00
 Coeff:      0.347D-04-0.145D-01 0.344D-01 0.184D+00 0.281D+00 0.515D+00
 Gap=     0.172 Goal=   None    Shift=    0.000
 RMSDP=1.22D-05 MaxDP=1.74D-03 DE=-1.48D-06 OVMax= 1.04D-04

 Cycle   7  Pass 1  IDiag  1:
 RMSU=  5.30D-06    CP:  1.01D+00  9.96D-01  5.49D-01  7.23D-01  6.76D-01
                    CP:  6.55D-01
 E= -1130.32500670562     Delta-E=       -0.000000050385 Rises=F Damp=F
 DIIS: error= 2.62D-06 at cycle   7 NSaved=   7.
 NSaved= 7 IEnMin= 7 EnMin= -1130.32500670562     IErMin= 7 ErrMin= 2.62D-06
 ErrMax= 2.62D-06  0.00D+00 EMaxC= 1.00D-01 BMatC= 5.50D-09 BMatP= 5.00D-08
 IDIUse=1 WtCom= 1.00D+00 WtEn= 0.00D+00
 Coeff-Com:  0.362D-04-0.642D-02 0.966D-02 0.575D-01 0.980D-01 0.291D+00
 Coeff-Com:  0.550D+00
 Coeff:      0.362D-04-0.642D-02 0.966D-02 0.575D-01 0.980D-01 0.291D+00
 Coeff:      0.550D+00
 Gap=     0.172 Goal=   None    Shift=    0.000
 RMSDP=3.38D-06 MaxDP=1.83D-04 DE=-5.04D-08 OVMax= 3.59D-05

 Cycle   8  Pass 1  IDiag  1:
 RMSU=  2.10D-06    CP:  1.01D+00  9.96D-01  5.51D-01  7.24D-01  6.56D-01
                    CP:  6.52D-01  7.33D-01
 E= -1130.32500671053     Delta-E=       -0.000000004915 Rises=F Damp=F
 DIIS: error= 6.60D-07 at cycle   8 NSaved=   8.
 NSaved= 8 IEnMin= 8 EnMin= -1130.32500671053     IErMin= 8 ErrMin= 6.60D-07
 ErrMax= 6.60D-07  0.00D+00 EMaxC= 1.00D-01 BMatC= 4.12D-10 BMatP= 5.50D-09
 IDIUse=1 WtCom= 1.00D+00 WtEn= 0.00D+00
 Coeff-Com:  0.168D-04-0.228D-02 0.237D-02 0.157D-01 0.295D-01 0.115D+00
 Coeff-Com:  0.290D+00 0.550D+00
 Coeff:      0.168D-04-0.228D-02 0.237D-02 0.157D-01 0.295D-01 0.115D+00
 Coeff:      0.290D+00 0.550D+00
 Gap=     0.172 Goal=   None    Shift=    0.000
 RMSDP=1.21D-06 MaxDP=1.45D-04 DE=-4.91D-09 OVMax= 1.22D-05

 Cycle   9  Pass 1  IDiag  1:
 RMSU=  6.07D-07    CP:  1.01D+00  9.96D-01  5.51D-01  7.23D-01  6.61D-01
                    CP:  6.64D-01  7.24D-01  7.57D-01
 E= -1130.32500671101     Delta-E=       -0.000000000482 Rises=F Damp=F
 DIIS: error= 2.93D-07 at cycle   9 NSaved=   9.
 NSaved= 9 IEnMin= 9 EnMin= -1130.32500671101     IErMin= 9 ErrMin= 2.93D-07
 ErrMax= 2.93D-07  0.00D+00 EMaxC= 1.00D-01 BMatC= 6.36D-11 BMatP= 4.12D-10
 IDIUse=1 WtCom= 1.00D+00 WtEn= 0.00D+00
 Coeff-Com:  0.375D-05-0.262D-03-0.212D-03-0.335D-03 0.991D-03 0.190D-01
 Coeff-Com:  0.777D-01 0.312D+00 0.591D+00
 Coeff:      0.375D-05-0.262D-03-0.212D-03-0.335D-03 0.991D-03 0.190D-01
 Coeff:      0.777D-01 0.312D+00 0.591D+00
 Gap=     0.172 Goal=   None    Shift=    0.000
 RMSDP=5.04D-07 MaxDP=2.68D-05 DE=-4.82D-10 OVMax= 5.15D-06

 Cycle  10  Pass 1  IDiag  1:
 RMSU=  2.72D-07    CP:  1.01D+00  9.96D-01  5.51D-01  7.23D-01  6.62D-01
                    CP:  6.69D-01  7.26D-01  7.78D-01  7.35D-01
 E= -1130.32500671084     Delta-E=        0.000000000175 Rises=F Damp=F
 DIIS: error= 1.22D-07 at cycle  10 NSaved=  10.
 NSaved=10 IEnMin= 9 EnMin= -1130.32500671101     IErMin=10 ErrMin= 1.22D-07
 ErrMax= 1.22D-07  0.00D+00 EMaxC= 1.00D-01 BMatC= 9.32D-12 BMatP= 6.36D-11
 IDIUse=1 WtCom= 1.00D+00 WtEn= 0.00D+00
 Coeff-Com:  0.167D-06 0.122D-03-0.411D-03-0.207D-02-0.294D-02-0.262D-02
 Coeff-Com:  0.116D-01 0.117D+00 0.347D+00 0.532D+00
 Coeff:      0.167D-06 0.122D-03-0.411D-03-0.207D-02-0.294D-02-0.262D-02
 Coeff:      0.116D-01 0.117D+00 0.347D+00 0.532D+00
 Gap=     0.172 Goal=   None    Shift=    0.000
 RMSDP=1.11D-07 MaxDP=7.05D-06 DE= 1.75D-10 OVMax= 1.43D-06

 Cycle  11  Pass 1  IDiag  1:
 RMSU=  7.29D-08    CP:  1.01D+00  9.96D-01  5.51D-01  7.23D-01  6.62D-01
                    CP:  6.67D-01  7.33D-01  7.76D-01  7.52D-01  8.06D-01
 E= -1130.32500671112     Delta-E=       -0.000000000277 Rises=F Damp=F
 DIIS: error= 4.01D-08 at cycle  11 NSaved=  11.
 NSaved=11 IEnMin=11 EnMin= -1130.32500671112     IErMin=11 ErrMin= 4.01D-08
 ErrMax= 4.01D-08  0.00D+00 EMaxC= 1.00D-01 BMatC= 9.94D-13 BMatP= 9.32D-12
 IDIUse=1 WtCom= 1.00D+00 WtEn= 0.00D+00
 Coeff-Com: -0.359D-06 0.997D-04-0.202D-03-0.109D-02-0.174D-02-0.390D-02
 Coeff-Com: -0.302D-02 0.250D-01 0.120D+00 0.303D+00 0.562D+00
 Coeff:     -0.359D-06 0.997D-04-0.202D-03-0.109D-02-0.174D-02-0.390D-02
 Coeff:     -0.302D-02 0.250D-01 0.120D+00 0.303D+00 0.562D+00
 Gap=     0.172 Goal=   None    Shift=    0.000
 RMSDP=6.54D-08 MaxDP=3.61D-06 DE=-2.77D-10 OVMax= 2.86D-07

 Cycle  12  Pass 1  IDiag  1:
 RMSU=  2.62D-08    CP:  1.01D+00  9.96D-01  5.51D-01  7.23D-01  6.62D-01
                    CP:  6.68D-01  7.34D-01  7.87D-01  7.62D-01  7.34D-01
                    CP:  7.15D-01
 E= -1130.32500671073     Delta-E=        0.000000000389 Rises=F Damp=F
 DIIS: error= 4.68D-09 at cycle  12 NSaved=  12.
 NSaved=12 IEnMin=11 EnMin= -1130.32500671112     IErMin=12 ErrMin= 4.68D-09
 ErrMax= 4.68D-09  0.00D+00 EMaxC= 1.00D-01 BMatC= 2.68D-14 BMatP= 9.94D-13
 IDIUse=1 WtCom= 1.00D+00 WtEn= 0.00D+00
 Coeff-Com: -0.152D-06 0.326D-04-0.561D-04-0.312D-03-0.516D-03-0.144D-02
 Coeff-Com: -0.191D-02 0.250D-02 0.267D-01 0.875D-01 0.221D+00 0.667D+00
 Coeff:     -0.152D-06 0.326D-04-0.561D-04-0.312D-03-0.516D-03-0.144D-02
 Coeff:     -0.191D-02 0.250D-02 0.267D-01 0.875D-01 0.221D+00 0.667D+00
 Gap=     0.172 Goal=   None    Shift=    0.000
 RMSDP=1.78D-08 MaxDP=1.18D-06 DE= 3.89D-10 OVMax= 4.63D-08

 Cycle  13  Pass 1  IDiag  1:
 RMSU=  7.93D-09    CP:  1.01D+00  9.96D-01  5.51D-01  7.23D-01  6.62D-01
                    CP:  6.68D-01  7.34D-01  7.85D-01  7.65D-01  7.62D-01
                    CP:  6.70D-01  8.09D-01
 E= -1130.32500671097     Delta-E=       -0.000000000244 Rises=F Damp=F
 DIIS: error= 1.44D-09 at cycle  13 NSaved=  13.
 NSaved=13 IEnMin=11 EnMin= -1130.32500671112     IErMin=13 ErrMin= 1.44D-09
 ErrMax= 1.44D-09  0.00D+00 EMaxC= 1.00D-01 BMatC= 3.78D-15 BMatP= 2.68D-14
 IDIUse=1 WtCom= 1.00D+00 WtEn= 0.00D+00
 Coeff-Com: -0.353D-07 0.551D-05-0.628D-05-0.383D-04-0.706D-04-0.295D-03
 Coeff-Com: -0.598D-03-0.128D-02 0.951D-03 0.121D-01 0.516D-01 0.320D+00
 Coeff-Com:  0.618D+00
 Coeff:     -0.353D-07 0.551D-05-0.628D-05-0.383D-04-0.706D-04-0.295D-03
 Coeff:     -0.598D-03-0.128D-02 0.951D-03 0.121D-01 0.516D-01 0.320D+00
 Coeff:      0.618D+00
 Gap=     0.172 Goal=   None    Shift=    0.000
 RMSDP=4.07D-09 MaxDP=2.63D-07 DE=-2.44D-10 OVMax= 1.15D-08

 SCF Done:  E(RB3LYP) =  -1130.32500671     A.U. after   13 cycles
            NFock= 13  Conv=0.41D-08     -V/T= 2.0059
 KE= 1.123711054060D+03 PE=-8.166597406591D+03 EE= 3.138968789610D+03
 Leave Link  502 at Mon Jul 28 19:04:04 2025, MaxMem=  1073741824 cpu:            1989.5 elap:             249.5
 (Enter /app/gaussian/g16/l701.exe)
 ... and contract with generalized density number  0.
 Compute integral first derivatives.
 Leave Link  701 at Mon Jul 28 19:04:04 2025, MaxMem=  1073741824 cpu:               1.7 elap:               0.2
 (Enter /app/gaussian/g16/l702.exe)
 L702 exits ... SP integral derivatives will be done elsewhere.
 Leave Link  702 at Mon Jul 28 19:04:04 2025, MaxMem=  1073741824 cpu:               0.1 elap:               0.0
 (Enter /app/gaussian/g16/l703.exe)
 Integral derivatives from FoFJK, PRISM(SPDF).
 Compute integral first derivatives, UseDBF=F ICtDFT=           0.
 Calling FoFJK, ICntrl=      2127 FMM=T ISym2X=0 I1Cent= 0 IOpClX= 0 NMat=1 NMatS=1 NMatT=0.
 FoFJK:  IHMeth= 1 ICntrl=    2127 DoSepK=F KAlg= 0 I1Cent=           0 FoldK=F
 IRaf=         0 NMat=       1 IRICut=       1 DoRegI=T DoRafI=F ISym2E= 0 IDoP0=0 IntGTp=1.
 FoFCou: FMM=T IPFlag=           0 FMFlag=      100000 FMFlg1=        2001
         NFxFlg=           0 DoJE=F BraDBF=F KetDBF=F FulRan=T
         wScrn=  0.000000 ICntrl=      2127 IOpCl=  0 I1Cent=           0 NGrid=           0
         NMat0=    1 NMatS0=      1 NMatT0=    0 NMatD0=    1 NMtDS0=    0 NMtDT0=    0
 Symmetry not used in FoFCou.
 FMM levels:  10  Number of levels for PrismC:   9
 Leave Link  703 at Mon Jul 28 19:04:54 2025, MaxMem=  1073741824 cpu:             398.7 elap:              50.0
 (Enter /app/gaussian/g16/l716.exe)
 Dipole        =-2.10920722D-01 9.18699138D-01 1.10343987D-01
 ***** Axes restored to original set *****
 -------------------------------------------------------------------
 Center     Atomic                   Forces (Hartrees/Bohr)
 Number     Number              X              Y              Z
 -------------------------------------------------------------------
      1        6           0.000113413    0.000264625    0.000097026
      2        6          -0.000108195   -0.000065203    0.000300128
      3        6           0.000103107   -0.000158446    0.000165875
      4        6           0.000025739    0.000212688    0.000434216
      5        6           0.000005248   -0.000461347   -0.000430608
      6        6          -0.000158474   -0.000107874    0.000248678
      7        6          -0.000311681    0.000200598   -0.000052043
      8        6          -0.000256657   -0.000007254   -0.000520111
      9        6           0.000226963   -0.000026706    0.000188561
     10        6          -0.000026634   -0.000135899   -0.000394929
     11        6           0.000048493   -0.000374368    0.000396919
     12        6           0.000315767    0.000178163   -0.000033804
     13        8          -0.000421282   -0.000452707   -0.000314859
     14        6          -0.000224551    0.000212680   -0.000079031
     15        6           0.000123725    0.000251981   -0.000000069
     16        6           0.000155045    0.000186247    0.000250986
     17        6           0.000064358   -0.000070355   -0.000069831
     18        6           0.000182865   -0.000054967   -0.000350472
     19        6          -0.000108766   -0.000315737    0.000336860
     20        6           0.000300680    0.000264786   -0.000312547
     21        6          -0.000155783   -0.000061863    0.000239806
     22        6          -0.000163354    0.000117873   -0.000055296
     23        6           0.000130052   -0.000029064    0.000355405
     24        6           0.000105613    0.000074579   -0.000081498
     25        6          -0.000026882   -0.000060400    0.000095841
     26        6          -0.000022901   -0.000009928   -0.000065563
     27        6          -0.000059934   -0.000057957   -0.000071246
     28        6           0.000018231   -0.000031682   -0.000217939
     29        1           0.000007915   -0.000013896   -0.000103675
     30        1          -0.000160122   -0.000017051   -0.000059977
     31        1          -0.000069147   -0.000045356   -0.000058713
     32        1          -0.000028242    0.000057526   -0.000016129
     33        1           0.000189243   -0.000042657   -0.000003781
     34        1           0.000023038    0.000009275   -0.000042113
     35        1          -0.000231150    0.000156403   -0.000158457
     36        1           0.000065537   -0.000023634   -0.000078975
     37        1          -0.000074929   -0.000031994    0.000093097
     38        1           0.000020560    0.000038061    0.000040264
     39        1          -0.000105793   -0.000035878    0.000110064
     40        1          -0.000017341    0.000147578   -0.000202036
     41        1           0.000106335    0.000132190    0.000069436
     42        1          -0.000122153    0.000176207   -0.000024943
     43        1           0.000056032    0.000099402    0.000002778
     44        1           0.000179586   -0.000079056    0.000150256
     45        1           0.000062662    0.000002160   -0.000067068
     46        1           0.000029080   -0.000075037   -0.000019001
     47        1           0.000095528   -0.000133345    0.000286861
     48        1          -0.000003348    0.000006563   -0.000013349
     49        1           0.000010750   -0.000072423    0.000006977
     50        1           0.000047382   -0.000013665    0.000065275
     51        1          -0.000080128    0.000033441    0.000056039
     52        1           0.000014998    0.000160702    0.000034395
     53        1           0.000074811    0.000068088   -0.000124472
     54        1           0.000110196    0.000023888   -0.000101697
     55        1          -0.000090717   -0.000035432    0.000025041
     56        1          -0.000035763   -0.000030020    0.000095238
     57        1          -0.000018586   -0.000072590    0.000049891
     58        1          -0.000041178   -0.000017402   -0.000088947
     59        1          -0.000082139   -0.000028844   -0.000092098
     60        1          -0.000062491    0.000026289   -0.000043542
     61        1           0.000027398    0.000017519    0.000002981
     62        1           0.000031929    0.000018553    0.000060912
     63        1          -0.000007392   -0.000019323   -0.000065649
     64        1           0.000045199   -0.000011126    0.000018956
     65        1           0.000091958   -0.000010067   -0.000034086
     66        1           0.000058510   -0.000037395   -0.000045410
     67        1           0.000048179    0.000031587    0.000025246
     68        1          -0.000027810    0.000048759    0.000057475
     69        1          -0.000033102    0.000092799   -0.000037258
     70        1           0.000016372   -0.000021154    0.000059867
     71        1          -0.000026900    0.000034158    0.000042766
     72        1           0.000031028    0.000003735    0.000067107
 -------------------------------------------------------------------
 Cartesian Forces:  Max     0.000520111 RMS     0.000149099
 Leave Link  716 at Mon Jul 28 19:04:54 2025, MaxMem=  1073741824 cpu:               0.2 elap:               0.0
 (Enter /app/gaussian/g16/l103.exe)

 GradGradGradGradGradGradGradGradGradGradGradGradGradGradGradGradGradGrad
 Berny optimization.
 Using GEDIIS/GDIIS optimizer.
 FormGI is forming the generalized inverse of G from B-inverse, IUseBI=4.
 Internal  Forces:  Max     0.000878065 RMS     0.000110680
 Search for a local minimum.
 Step number   5 out of a maximum of  432
 All quantities printed in internal units (Hartrees-Bohrs-Radians)
 RMS Force = .11068D-03 SwitMx=.10000D-02 MixMth= 2
 Mixed Optimization -- En-DIIS/RFO-DIIS
 Swapping is turned off.
 Update second derivatives using D2CorX and points    2    3    4    5
 DE= -2.61D-04 DEPred=-2.60D-04 R= 1.00D+00
 TightC=F SS=  1.41D+00  RLast= 1.25D-01 DXNew= 1.4270D+00 3.7538D-01
 Trust test= 1.00D+00 RLast= 1.25D-01 DXMaxT set to 8.49D-01
 ITU=  1  0  1  1  0
     Eigenvalues ---    0.00215   0.00232   0.00233   0.00240   0.00243
     Eigenvalues ---    0.00261   0.00272   0.00305   0.00329   0.00357
     Eigenvalues ---    0.00361   0.00375   0.00438   0.00501   0.00558
     Eigenvalues ---    0.00648   0.00917   0.01036   0.01220   0.01303
     Eigenvalues ---    0.01735   0.01990   0.02013   0.02105   0.02358
     Eigenvalues ---    0.02445   0.02495   0.02651   0.02746   0.02971
     Eigenvalues ---    0.03002   0.03225   0.03451   0.03482   0.03563
     Eigenvalues ---    0.03597   0.03723   0.03892   0.03998   0.04182
     Eigenvalues ---    0.04280   0.04425   0.04604   0.04633   0.04683
     Eigenvalues ---    0.04704   0.04740   0.04804   0.04819   0.04873
     Eigenvalues ---    0.04899   0.04909   0.04958   0.05066   0.05191
     Eigenvalues ---    0.05308   0.05357   0.05359   0.05401   0.05422
     Eigenvalues ---    0.05432   0.05435   0.05462   0.05481   0.05553
     Eigenvalues ---    0.05566   0.05581   0.05586   0.05609   0.05819
     Eigenvalues ---    0.05888   0.05940   0.05969   0.06364   0.06754
     Eigenvalues ---    0.06950   0.07156   0.07237   0.07471   0.07709
     Eigenvalues ---    0.08016   0.08050   0.08153   0.08192   0.08278
     Eigenvalues ---    0.08333   0.08714   0.08823   0.09076   0.09429
     Eigenvalues ---    0.09739   0.10204   0.10844   0.11103   0.12085
     Eigenvalues ---    0.12130   0.12485   0.12911   0.12980   0.14244
     Eigenvalues ---    0.14608   0.15217   0.15400   0.15817   0.15921
     Eigenvalues ---    0.15973   0.15991   0.16000   0.16000   0.16000
     Eigenvalues ---    0.16000   0.16000   0.16000   0.16000   0.16000
     Eigenvalues ---    0.16000   0.16000   0.16000   0.16002   0.16053
     Eigenvalues ---    0.16369   0.16659   0.17033   0.17192   0.18203
     Eigenvalues ---    0.19071   0.19253   0.19402   0.20675   0.20832
     Eigenvalues ---    0.21877   0.22022   0.22268   0.22608   0.22928
     Eigenvalues ---    0.24325   0.24678   0.25040   0.25670   0.25966
     Eigenvalues ---    0.26382   0.26787   0.26972   0.27139   0.27714
     Eigenvalues ---    0.27889   0.27978   0.28022   0.28220   0.28426
     Eigenvalues ---    0.28495   0.28535   0.28649   0.28736   0.28876
     Eigenvalues ---    0.29208   0.29358   0.29442   0.29895   0.30882
     Eigenvalues ---    0.31040   0.32668   0.33188   0.33257   0.33527
     Eigenvalues ---    0.33653   0.33717   0.33813   0.33892   0.33935
     Eigenvalues ---    0.33950   0.33955   0.33967   0.33982   0.34013
     Eigenvalues ---    0.34029   0.34056   0.34075   0.34093   0.34104
     Eigenvalues ---    0.34109   0.34118   0.34154   0.34177   0.34180
     Eigenvalues ---    0.34188   0.34199   0.34211   0.34213   0.34217
     Eigenvalues ---    0.34223   0.34228   0.34233   0.34263   0.34279
     Eigenvalues ---    0.34342   0.34344   0.34464   0.34551   0.34627
     Eigenvalues ---    0.34778   0.34816   0.35171   0.35279   0.37494
     Eigenvalues ---    0.37861   0.41016   0.52833   0.53215   0.54970
 En-DIIS/RFO-DIIS/Sim-DIIS IScMMF=       -3 using points:     5    4    3    2
 RFO step:  Lambda=-8.01628409D-05.
 NNeg= 0 NGDIIS= 4 SimSw=  2.50D-01 Rises=F DC= -2.61D-04 SmlDif=  1.00D-05
 NRisDI= 0 DoIntr=F SqrtH=F CThrHd= 10.0 CDAdj=  3.0
 RMS Error=  0.5079920837D-02 NUsed= 4 OKEnD=T EnDIS=F
 InvSVX:  RCond= 1.60D-03 Info=           0 Equed=N FErr=  5.71D-15 BErr=  6.76D-17
 DidBck=F Rises=F RFO-DIIS coefs:    1.08446   -0.19025    0.25348   -0.14770
 Iteration  1 RMS(Cart)=  0.01798945 RMS(Int)=  0.00005573
 Iteration  2 RMS(Cart)=  0.00009990 RMS(Int)=  0.00001134
 Iteration  3 RMS(Cart)=  0.00000001 RMS(Int)=  0.00001134
 ITry= 1 IFail=0 DXMaxC= 9.56D-02 DCOld= 1.00D+10 DXMaxT= 8.49D-01 DXLimC= 3.00D+00 Rises=F
 Variable       Old X    -DE/DX   Delta X   Delta X   Delta X     New X
                                 (Linear)    (Quad)   (Total)
    R1        2.92941   0.00010   0.00056  -0.00037   0.00019   2.92959
    R2        2.06957   0.00005  -0.00010   0.00023   0.00014   2.06971
    R3        2.06757  -0.00013   0.00021  -0.00053  -0.00031   2.06726
    R4        2.07000   0.00005   0.00026  -0.00016   0.00010   2.07010
    R5        2.95396  -0.00017   0.00057  -0.00090  -0.00033   2.95362
    R6        2.91282   0.00003   0.00014  -0.00014  -0.00001   2.91280
    R7        2.95938   0.00003  -0.00074   0.00048  -0.00026   2.95912
    R8        2.84600   0.00018  -0.00021   0.00074   0.00054   2.84655
    R9        2.91602   0.00015   0.00009   0.00055   0.00064   2.91667
   R10        2.09512  -0.00002   0.00019  -0.00033  -0.00014   2.09499
   R11        2.90580   0.00030  -0.00006   0.00086   0.00080   2.90660
   R12        2.55700   0.00000   0.00026  -0.00036  -0.00010   2.55690
   R13        2.98223   0.00088   0.00058   0.00146   0.00203   2.98426
   R14        2.95025   0.00015   0.00068  -0.00085  -0.00017   2.95008
   R15        2.09692  -0.00008   0.00029  -0.00063  -0.00035   2.09658
   R16        2.94617   0.00011   0.00055  -0.00037   0.00018   2.94635
   R17        2.90760  -0.00016  -0.00004   0.00041   0.00036   2.90796
   R18        2.96365  -0.00024   0.00066  -0.00151  -0.00085   2.96279
   R19        2.07084   0.00001  -0.00001  -0.00002  -0.00003   2.07081
   R20        2.07061  -0.00017  -0.00017  -0.00016  -0.00033   2.07028
   R21        2.06955   0.00006  -0.00006   0.00019   0.00013   2.06968
   R22        2.55178   0.00004   0.00009   0.00013   0.00023   2.55201
   R23        2.84891  -0.00001  -0.00038   0.00074   0.00036   2.84926
   R24        2.76054  -0.00005   0.00053  -0.00102  -0.00049   2.76005
   R25        2.05721  -0.00001   0.00007  -0.00015  -0.00008   2.05713
   R26        2.05347   0.00005  -0.00002   0.00014   0.00012   2.05359
   R27        2.91923  -0.00025   0.00040  -0.00119  -0.00079   2.91844
   R28        2.06891  -0.00002  -0.00005  -0.00011  -0.00016   2.06875
   R29        2.07862   0.00012   0.00010   0.00009   0.00019   2.07881
   R30        2.78796   0.00069   0.00084   0.00105   0.00189   2.78985
   R31        2.91727   0.00002  -0.00011  -0.00037  -0.00048   2.91679
   R32        2.07618   0.00011  -0.00002   0.00014   0.00012   2.07630
   R33        1.84892   0.00001   0.00010  -0.00004   0.00006   1.84898
   R34        2.90704   0.00014   0.00004   0.00010   0.00014   2.90719
   R35        2.07679  -0.00010   0.00017  -0.00052  -0.00036   2.07643
   R36        2.07642   0.00019  -0.00006   0.00064   0.00058   2.07700
   R37        2.07153  -0.00001  -0.00005  -0.00000  -0.00005   2.07148
   R38        2.07472   0.00002  -0.00002   0.00001  -0.00001   2.07471
   R39        2.92244   0.00009  -0.00002   0.00026   0.00024   2.92267
   R40        2.06769  -0.00024  -0.00034   0.00003  -0.00031   2.06738
   R41        2.07322  -0.00001   0.00001  -0.00009  -0.00008   2.07314
   R42        2.08125   0.00001   0.00013  -0.00018  -0.00006   2.08119
   R43        2.07801   0.00002   0.00009  -0.00009  -0.00000   2.07800
   R44        2.95925   0.00011   0.00044  -0.00008   0.00035   2.95960
   R45        2.07063   0.00008  -0.00001   0.00019   0.00018   2.07081
   R46        2.07359   0.00003   0.00002   0.00006   0.00008   2.07367
   R47        2.96474  -0.00014   0.00051  -0.00159  -0.00108   2.96366
   R48        2.06484   0.00014   0.00077  -0.00046   0.00030   2.06515
   R49        2.07141  -0.00005  -0.00004  -0.00013  -0.00017   2.07124
   R50        2.94526  -0.00010  -0.00146   0.00092  -0.00054   2.94472
   R51        2.08735   0.00007   0.00011  -0.00002   0.00009   2.08744
   R52        2.94466  -0.00000  -0.00108   0.00126   0.00018   2.94484
   R53        2.92708  -0.00002   0.00023  -0.00038  -0.00014   2.92693
   R54        2.08572   0.00005   0.00008   0.00005   0.00013   2.08585
   R55        2.91674   0.00015  -0.00010   0.00063   0.00053   2.91727
   R56        2.07048  -0.00001   0.00056  -0.00074  -0.00018   2.07030
   R57        2.08326  -0.00002   0.00014  -0.00029  -0.00015   2.08311
   R58        2.91443   0.00022  -0.00018   0.00091   0.00073   2.91516
   R59        2.07849  -0.00013   0.00028  -0.00074  -0.00046   2.07803
   R60        2.07041   0.00007   0.00070  -0.00060   0.00010   2.07050
   R61        2.92538   0.00006  -0.00009   0.00049   0.00040   2.92577
   R62        2.08097  -0.00000   0.00014  -0.00023  -0.00009   2.08088
   R63        2.08361  -0.00007   0.00023  -0.00048  -0.00025   2.08336
   R64        2.91465   0.00022   0.00003   0.00060   0.00063   2.91528
   R65        2.91498   0.00013   0.00021   0.00016   0.00037   2.91536
   R66        2.08468  -0.00006   0.00026  -0.00052  -0.00026   2.08442
   R67        2.07657  -0.00003   0.00016  -0.00032  -0.00015   2.07642
   R68        2.07349   0.00003   0.00004  -0.00002   0.00002   2.07351
   R69        2.07326   0.00003   0.00001   0.00005   0.00006   2.07332
   R70        2.07716  -0.00005   0.00017  -0.00036  -0.00019   2.07697
   R71        2.07359  -0.00001   0.00007  -0.00015  -0.00008   2.07351
   R72        2.07061   0.00004   0.00004  -0.00001   0.00003   2.07064
   R73        2.07349   0.00004   0.00003  -0.00001   0.00002   2.07351
   R74        2.07377  -0.00004   0.00006  -0.00019  -0.00013   2.07364
   R75        2.07112   0.00002   0.00015  -0.00016  -0.00001   2.07110
    A1        1.93651   0.00009   0.00008   0.00026   0.00035   1.93685
    A2        1.95177   0.00008  -0.00079   0.00144   0.00065   1.95241
    A3        1.94112  -0.00000  -0.00002  -0.00010  -0.00012   1.94100
    A4        1.87138  -0.00010   0.00056  -0.00110  -0.00054   1.87083
    A5        1.87863  -0.00009   0.00103  -0.00196  -0.00093   1.87770
    A6        1.88109   0.00001  -0.00079   0.00133   0.00053   1.88162
    A7        1.92748  -0.00010   0.00133  -0.00287  -0.00154   1.92594
    A8        1.93433   0.00001   0.00096  -0.00114  -0.00017   1.93416
    A9        1.98011   0.00009  -0.00269   0.00345   0.00076   1.98086
   A10        1.86612   0.00004   0.00008   0.00081   0.00089   1.86701
   A11        1.72977   0.00002   0.00017  -0.00062  -0.00046   1.72931
   A12        2.01121  -0.00007   0.00032   0.00005   0.00037   2.01158
   A13        1.99797   0.00003   0.00069  -0.00074  -0.00005   1.99792
   A14        1.81651  -0.00002   0.00006  -0.00057  -0.00053   1.81598
   A15        1.82288   0.00000  -0.00173   0.00275   0.00101   1.82389
   A16        2.11120   0.00002  -0.00028   0.00066   0.00038   2.11158
   A17        1.83307  -0.00004   0.00042  -0.00085  -0.00042   1.83265
   A18        1.85871   0.00001   0.00058  -0.00083  -0.00025   1.85845
   A19        2.00610   0.00014  -0.00017   0.00094   0.00073   2.00682
   A20        2.15661  -0.00013  -0.00021   0.00010  -0.00017   2.15644
   A21        2.09981  -0.00002  -0.00019   0.00009  -0.00019   2.09962
   A22        1.97880  -0.00018  -0.00002   0.00122   0.00118   1.97998
   A23        1.96253  -0.00026  -0.00039   0.00087   0.00049   1.96302
   A24        1.83710   0.00006  -0.00026  -0.00278  -0.00303   1.83406
   A25        1.95470   0.00068   0.00160   0.00270   0.00431   1.95901
   A26        1.86105  -0.00013  -0.00087  -0.00013  -0.00101   1.86004
   A27        1.85824  -0.00022  -0.00026  -0.00265  -0.00292   1.85532
   A28        1.94812   0.00043   0.00184   0.00112   0.00296   1.95108
   A29        1.93254   0.00004  -0.00059   0.00154   0.00094   1.93348
   A30        1.92602  -0.00012   0.00039  -0.00083  -0.00045   1.92558
   A31        1.85836  -0.00032  -0.00118  -0.00138  -0.00255   1.85581
   A32        1.90334  -0.00007   0.00024  -0.00081  -0.00058   1.90276
   A33        1.89342   0.00003  -0.00079   0.00031  -0.00048   1.89294
   A34        1.91652  -0.00002  -0.00095   0.00102   0.00007   1.91659
   A35        1.94762   0.00015   0.00028   0.00012   0.00040   1.94801
   A36        1.93737   0.00011  -0.00025   0.00100   0.00074   1.93812
   A37        1.87490  -0.00014   0.00023  -0.00145  -0.00123   1.87367
   A38        1.88581  -0.00006   0.00022  -0.00051  -0.00030   1.88552
   A39        1.89953  -0.00005   0.00050  -0.00028   0.00023   1.89975
   A40        2.10255  -0.00007  -0.00015  -0.00001  -0.00023   2.10231
   A41        2.01959  -0.00005  -0.00021   0.00067   0.00041   2.02000
   A42        2.15991   0.00013   0.00034  -0.00034  -0.00004   2.15987
   A43        2.12595   0.00015  -0.00006   0.00102   0.00095   2.12689
   A44        2.09599  -0.00012  -0.00035  -0.00032  -0.00066   2.09533
   A45        2.05991  -0.00003   0.00040  -0.00072  -0.00031   2.05960
   A46        2.12078   0.00009   0.00011   0.00026   0.00037   2.12114
   A47        2.09791  -0.00006  -0.00052   0.00015  -0.00038   2.09752
   A48        2.05889  -0.00005   0.00044  -0.00095  -0.00052   2.05837
   A49        1.94103   0.00008  -0.00069   0.00217   0.00147   1.94250
   A50        1.94377   0.00006   0.00005   0.00004   0.00008   1.94385
   A51        1.93004  -0.00004   0.00014   0.00044   0.00051   1.93055
   A52        1.93110  -0.00019   0.00122  -0.00388  -0.00265   1.92845
   A53        1.84708   0.00013  -0.00151   0.00289   0.00133   1.84841
   A54        1.86707  -0.00003   0.00087  -0.00168  -0.00078   1.86629
   A55        1.83150   0.00007  -0.00204   0.00388   0.00183   1.83334
   A56        1.94767  -0.00005  -0.00053  -0.00021  -0.00078   1.94689
   A57        1.92666  -0.00010   0.00127  -0.00317  -0.00191   1.92475
   A58        1.94984   0.00001   0.00016   0.00056   0.00069   1.95054
   A59        1.88986   0.00004   0.00029   0.00042   0.00076   1.89062
   A60        1.91616   0.00004   0.00087  -0.00133  -0.00050   1.91567
   A61        1.93898   0.00013  -0.00009   0.00096   0.00088   1.93986
   A62        1.94636  -0.00008  -0.00010  -0.00021  -0.00031   1.94604
   A63        1.90975  -0.00004  -0.00018   0.00002  -0.00017   1.90958
   A64        1.89565   0.00017  -0.00083   0.00236   0.00153   1.89718
   A65        1.93423   0.00008   0.00067  -0.00040   0.00026   1.93450
   A66        1.91607  -0.00009   0.00056  -0.00153  -0.00099   1.91508
   A67        1.85937  -0.00003  -0.00011  -0.00017  -0.00029   1.85908
   A68        1.95024  -0.00003  -0.00026   0.00038   0.00010   1.95033
   A69        1.91990  -0.00008  -0.00009  -0.00058  -0.00066   1.91923
   A70        1.91152   0.00004  -0.00022   0.00021   0.00000   1.91152
   A71        1.92660   0.00013   0.00018   0.00044   0.00062   1.92722
   A72        1.89576  -0.00003   0.00007   0.00037   0.00045   1.89621
   A73        1.85730  -0.00003   0.00036  -0.00088  -0.00052   1.85677
   A74        2.00254   0.00022   0.00001   0.00002   0.00000   2.00255
   A75        1.90826   0.00009   0.00001   0.00099   0.00100   1.90926
   A76        1.90508  -0.00009   0.00017  -0.00033  -0.00014   1.90494
   A77        1.88293  -0.00023  -0.00052  -0.00007  -0.00059   1.88234
   A78        1.90342  -0.00003  -0.00000   0.00002   0.00002   1.90344
   A79        1.85598   0.00002   0.00036  -0.00069  -0.00033   1.85565
   A80        1.93682  -0.00006  -0.00006  -0.00035  -0.00042   1.93640
   A81        1.90077   0.00003  -0.00048   0.00091   0.00042   1.90119
   A82        1.93714   0.00000   0.00024  -0.00035  -0.00011   1.93704
   A83        1.92169   0.00005   0.00016  -0.00004   0.00011   1.92181
   A84        1.90013   0.00003  -0.00012   0.00073   0.00061   1.90074
   A85        1.86605  -0.00005   0.00029  -0.00092  -0.00063   1.86542
   A86        1.81742  -0.00005  -0.00023   0.00071   0.00046   1.81788
   A87        1.95874  -0.00004   0.00046  -0.00155  -0.00108   1.95765
   A88        1.92765   0.00008  -0.00063   0.00169   0.00107   1.92872
   A89        1.95780   0.00000   0.00043  -0.00073  -0.00028   1.95752
   A90        1.93371   0.00006  -0.00013   0.00055   0.00043   1.93414
   A91        1.86970  -0.00005   0.00007  -0.00059  -0.00052   1.86918
   A92        1.85086  -0.00001   0.00031  -0.00095  -0.00068   1.85018
   A93        1.93173  -0.00005   0.00018  -0.00112  -0.00095   1.93078
   A94        1.94311   0.00003   0.00075   0.00021   0.00097   1.94408
   A95        1.95018   0.00004  -0.00167   0.00169   0.00003   1.95021
   A96        1.92873   0.00002   0.00021   0.00071   0.00093   1.92966
   A97        1.86077  -0.00003   0.00024  -0.00049  -0.00025   1.86052
   A98        1.80872   0.00004  -0.00088   0.00029  -0.00063   1.80808
   A99        2.10858   0.00007  -0.00367   0.00457   0.00091   2.10949
   A100       1.80992  -0.00008   0.00245  -0.00340  -0.00094   1.80898
   A101       2.06518  -0.00007  -0.00348   0.00456   0.00106   2.06624
   A102       1.84150   0.00007   0.00385  -0.00367   0.00017   1.84167
   A103       1.79730  -0.00003   0.00401  -0.00492  -0.00092   1.79639
   A104       2.10722  -0.00013  -0.00584   0.00454  -0.00130   2.10592
   A105       1.91008   0.00015   0.00023   0.00014   0.00038   1.91047
   A106       1.82620  -0.00000   0.00212  -0.00151   0.00059   1.82679
   A107       1.92803  -0.00007   0.00038  -0.00081  -0.00042   1.92762
   A108       1.81839   0.00012   0.00207  -0.00061   0.00146   1.81986
   A109       1.85240  -0.00006   0.00233  -0.00285  -0.00053   1.85187
   A110       2.08081  -0.00032  -0.00315   0.00226  -0.00088   2.07993
   A111       1.91386   0.00007  -0.00107   0.00117   0.00010   1.91396
   A112       1.84225   0.00011   0.00148  -0.00100   0.00047   1.84273
   A113       1.89627   0.00017  -0.00062   0.00134   0.00072   1.89699
   A114       1.87330   0.00007   0.00233  -0.00204   0.00028   1.87358
   A115       1.84218  -0.00009   0.00182  -0.00255  -0.00073   1.84145
   A116       1.95020   0.00029  -0.00001   0.00153   0.00152   1.95171
   A117       1.92263  -0.00005  -0.00031   0.00067   0.00036   1.92299
   A118       1.92121  -0.00014  -0.00026  -0.00098  -0.00125   1.91996
   A119       1.89881  -0.00010   0.00026  -0.00028  -0.00002   1.89879
   A120       1.90739  -0.00007   0.00106  -0.00163  -0.00056   1.90683
   A121       1.86131   0.00005  -0.00076   0.00064  -0.00012   1.86119
   A122       2.00998   0.00010  -0.00005   0.00079   0.00074   2.01073
   A123       1.89404  -0.00002   0.00016  -0.00032  -0.00016   1.89388
   A124       1.90948  -0.00003   0.00007  -0.00019  -0.00013   1.90935
   A125       1.89211  -0.00003   0.00010  -0.00018  -0.00009   1.89202
   A126       1.89817  -0.00005  -0.00019  -0.00014  -0.00033   1.89784
   A127       1.85373   0.00002  -0.00008  -0.00002  -0.00011   1.85362
   A128       1.92768   0.00007  -0.00005   0.00068   0.00063   1.92832
   A129       1.96263  -0.00003  -0.00019   0.00031   0.00012   1.96275
   A130       1.87694  -0.00001  -0.00028   0.00028   0.00000   1.87694
   A131       1.92711  -0.00002   0.00027  -0.00050  -0.00023   1.92688
   A132       1.88222  -0.00002   0.00024  -0.00058  -0.00033   1.88188
   A133       1.88428   0.00001   0.00001  -0.00024  -0.00023   1.88405
   A134       1.93116   0.00002  -0.00018   0.00033   0.00015   1.93131
   A135       1.94152   0.00009   0.00000   0.00048   0.00048   1.94200
   A136       1.94012   0.00008  -0.00020   0.00077   0.00057   1.94069
   A137       1.88208  -0.00005   0.00002  -0.00024  -0.00023   1.88186
   A138       1.88120  -0.00005   0.00002  -0.00038  -0.00036   1.88084
   A139       1.88543  -0.00010   0.00035  -0.00104  -0.00069   1.88474
   A140       1.92904   0.00001  -0.00030   0.00045   0.00015   1.92919
   A141       1.93407   0.00001  -0.00000  -0.00004  -0.00004   1.93403
   A142       1.95503   0.00012  -0.00007   0.00081   0.00073   1.95576
   A143       1.88029  -0.00001  -0.00002  -0.00007  -0.00008   1.88021
   A144       1.88400  -0.00005  -0.00004  -0.00001  -0.00005   1.88395
   A145       1.87872  -0.00009   0.00046  -0.00122  -0.00076   1.87796
   A146       1.93549   0.00003  -0.00002   0.00011   0.00009   1.93558
   A147       1.93292   0.00003  -0.00019   0.00045   0.00026   1.93317
   A148       1.95155   0.00009  -0.00010   0.00069   0.00059   1.95214
   A149       1.88268  -0.00005   0.00036  -0.00096  -0.00060   1.88208
   A150       1.87807  -0.00006   0.00009  -0.00034  -0.00026   1.87781
   A151       1.88041  -0.00005  -0.00012  -0.00002  -0.00014   1.88026
    D1       -0.73793  -0.00001  -0.00131   0.00249   0.00118  -0.73675
    D2        1.32678  -0.00002   0.00023   0.00097   0.00120   1.32798
    D3       -2.66181  -0.00003  -0.00082   0.00306   0.00224  -2.65957
    D4        1.35059  -0.00002  -0.00107   0.00223   0.00116   1.35175
    D5       -2.86788  -0.00003   0.00047   0.00071   0.00118  -2.86670
    D6       -0.57329  -0.00004  -0.00058   0.00280   0.00222  -0.57107
    D7       -2.82854   0.00004  -0.00265   0.00485   0.00220  -2.82634
    D8       -0.76383   0.00003  -0.00110   0.00332   0.00222  -0.76160
    D9        1.53076   0.00003  -0.00216   0.00542   0.00326   1.53403
   D10        1.08446  -0.00002   0.00302  -0.00248   0.00054   1.08500
   D11       -1.25746  -0.00005   0.00282  -0.00228   0.00053  -1.25693
   D12        3.07927  -0.00005   0.00281  -0.00218   0.00063   3.07990
   D13       -1.02151  -0.00000   0.00103   0.00006   0.00109  -1.02042
   D14        2.91976  -0.00003   0.00083   0.00025   0.00107   2.92083
   D15        0.97330  -0.00003   0.00082   0.00036   0.00118   0.97448
   D16       -3.11598   0.00005   0.00058  -0.00001   0.00056  -3.11542
   D17        0.82528   0.00002   0.00037   0.00018   0.00055   0.82583
   D18       -1.12118   0.00002   0.00037   0.00029   0.00065  -1.12053
   D19       -1.06769   0.00010  -0.00305   0.00514   0.00209  -1.06560
   D20        3.09739   0.00006  -0.00288   0.00482   0.00193   3.09933
   D21        1.04765   0.00009  -0.00309   0.00559   0.00251   1.05016
   D22        1.03391   0.00001  -0.00082   0.00150   0.00067   1.03458
   D23       -1.08419  -0.00003  -0.00065   0.00117   0.00052  -1.08368
   D24       -3.13393   0.00000  -0.00085   0.00194   0.00109  -3.13285
   D25        2.93709   0.00002  -0.00041   0.00126   0.00083   2.93793
   D26        0.81899  -0.00001  -0.00024   0.00093   0.00068   0.81967
   D27       -1.23075   0.00002  -0.00044   0.00170   0.00125  -1.22950
   D28        1.29834  -0.00010  -0.00115  -0.00470  -0.00584   1.29251
   D29       -1.06640  -0.00010   0.00864  -0.01624  -0.00760  -1.07400
   D30       -3.06464  -0.00004   0.00358  -0.00977  -0.00620  -3.07084
   D31       -0.74485  -0.00003  -0.00171  -0.00239  -0.00409  -0.74894
   D32       -3.10959  -0.00003   0.00808  -0.01393  -0.00586  -3.11545
   D33        1.17535   0.00003   0.00302  -0.00746  -0.00445   1.17090
   D34       -2.72871  -0.00006  -0.00203  -0.00300  -0.00500  -2.73372
   D35        1.18972  -0.00007   0.00777  -0.01453  -0.00677   1.18295
   D36       -0.80851  -0.00000   0.00270  -0.00807  -0.00536  -0.81388
   D37        0.87704  -0.00007  -0.00023  -0.00273  -0.00296   0.87408
   D38       -2.48161  -0.00009  -0.00422   0.00315  -0.00106  -2.48268
   D39        3.07247  -0.00006   0.00031  -0.00374  -0.00345   3.06902
   D40       -0.28618  -0.00007  -0.00369   0.00214  -0.00155  -0.28773
   D41       -1.11178  -0.00007   0.00126  -0.00515  -0.00390  -1.11568
   D42        1.81275  -0.00008  -0.00274   0.00073  -0.00200   1.81075
   D43       -0.58113  -0.00005   0.00177   0.00094   0.00272  -0.57841
   D44       -2.70266   0.00000   0.00115   0.00222   0.00337  -2.69930
   D45        1.49551   0.00003   0.00118   0.00283   0.00402   1.49952
   D46       -2.85764  -0.00009   0.00097   0.00203   0.00300  -2.85464
   D47        1.30401  -0.00003   0.00034   0.00330   0.00365   1.30766
   D48       -0.78100  -0.00001   0.00038   0.00391   0.00430  -0.77671
   D49        1.33919  -0.00005   0.00009   0.00344   0.00353   1.34272
   D50       -0.78234   0.00000  -0.00054   0.00472   0.00418  -0.77816
   D51       -2.86736   0.00003  -0.00050   0.00533   0.00483  -2.86253
   D52       -2.94564  -0.00032  -0.00267  -0.00240  -0.00508  -2.95071
   D53       -0.70604   0.00024  -0.00079   0.00320   0.00240  -0.70364
   D54        1.30994  -0.00011  -0.00145  -0.00116  -0.00260   1.30733
   D55        0.40535  -0.00029   0.00117  -0.00807  -0.00691   0.39844
   D56        2.64494   0.00028   0.00304  -0.00247   0.00058   2.64552
   D57       -1.62226  -0.00008   0.00239  -0.00683  -0.00443  -1.62670
   D58       -2.87798   0.00023   0.00286   0.00082   0.00366  -2.87431
   D59        0.14763   0.00001   0.00313  -0.00485  -0.00173   0.14591
   D60        0.03544   0.00023  -0.00133   0.00710   0.00576   0.04121
   D61        3.06105   0.00001  -0.00106   0.00143   0.00038   3.06143
   D62        1.40008  -0.00001  -0.00244   0.00737   0.00493   1.40501
   D63       -0.66700   0.00009  -0.00177   0.00737   0.00560  -0.66139
   D64       -2.76364   0.00011  -0.00066   0.00653   0.00589  -2.75775
   D65       -0.84355  -0.00010  -0.00331   0.00274  -0.00057  -0.84412
   D66       -2.91062   0.00000  -0.00263   0.00274   0.00010  -2.91052
   D67        1.27592   0.00002  -0.00152   0.00190   0.00038   1.27631
   D68       -2.86967  -0.00012  -0.00331   0.00457   0.00126  -2.86841
   D69        1.34644  -0.00002  -0.00263   0.00457   0.00193   1.34837
   D70       -0.75020  -0.00000  -0.00152   0.00372   0.00221  -0.74799
   D71        0.75154  -0.00015   0.00149  -0.00243  -0.00093   0.75060
   D72       -1.36610  -0.00007   0.00217  -0.00310  -0.00093  -1.36703
   D73        2.89349  -0.00010   0.00162  -0.00264  -0.00101   2.89248
   D74        3.00371  -0.00002   0.00252   0.00233   0.00485   3.00857
   D75        0.88608   0.00005   0.00320   0.00166   0.00486   0.89094
   D76       -1.13752   0.00002   0.00266   0.00212   0.00478  -1.13275
   D77       -1.25164   0.00005   0.00214   0.00202   0.00417  -1.24747
   D78        2.91391   0.00013   0.00282   0.00135   0.00418   2.91808
   D79        0.89031   0.00010   0.00227   0.00182   0.00409   0.89440
   D80       -2.97052   0.00003   0.00301   0.01407   0.01709  -2.95343
   D81        1.23572   0.00013   0.00317   0.01515   0.01832   1.25404
   D82       -0.88644   0.00002   0.00251   0.01472   0.01723  -0.86920
   D83       -0.85964   0.00012   0.00261   0.01573   0.01833  -0.84131
   D84       -2.93659   0.00022   0.00277   0.01680   0.01956  -2.91703
   D85        1.22444   0.00011   0.00210   0.01638   0.01848   1.24292
   D86        1.18010  -0.00005   0.00117   0.01494   0.01611   1.19621
   D87       -0.89685   0.00005   0.00133   0.01601   0.01734  -0.87951
   D88       -3.01900  -0.00007   0.00066   0.01559   0.01625  -3.00275
   D89        0.56849   0.00008   0.00282  -0.00711  -0.00430   0.56419
   D90       -2.62244   0.00013  -0.00094  -0.00037  -0.00129  -2.62374
   D91       -1.55234  -0.00026   0.00168  -0.00850  -0.00684  -1.55918
   D92        1.53991  -0.00021  -0.00209  -0.00176  -0.00384   1.53608
   D93        2.68450  -0.00002   0.00242  -0.00698  -0.00458   2.67993
   D94       -0.50643   0.00003  -0.00134  -0.00024  -0.00157  -0.50800
   D95        1.55069  -0.00005  -0.00113   0.00389   0.00274   1.55343
   D96       -0.59560  -0.00014  -0.00112   0.00348   0.00235  -0.59325
   D97       -2.63108  -0.00008  -0.00137   0.00475   0.00337  -2.62771
   D98       -2.58666   0.00036   0.00155   0.00421   0.00575  -2.58090
   D99        1.55024   0.00027   0.00157   0.00379   0.00537   1.55560
   D100      -0.48524   0.00033   0.00131   0.00507   0.00638  -0.47886
   D101      -0.56933  -0.00004  -0.00015   0.00231   0.00216  -0.56717
   D102      -2.71561  -0.00013  -0.00013   0.00189   0.00177  -2.71384
   D103       1.53209  -0.00007  -0.00038   0.00316   0.00279   1.53488
   D104      -0.15007  -0.00009  -0.00328   0.00627   0.00299  -0.14708
   D105       3.04830   0.00000  -0.00313   0.00652   0.00339   3.05170
   D106       3.04499  -0.00014   0.00076  -0.00107  -0.00028   3.04471
   D107      -0.03982  -0.00005   0.00092  -0.00081   0.00013  -0.03969
   D108       1.09393   0.00006   0.00252  -0.00472  -0.00220   1.09173
   D109      -3.02652  -0.00009   0.00363  -0.00814  -0.00451  -3.03102
   D110      -0.95297  -0.00012   0.00483  -0.00993  -0.00510  -0.95807
   D111      -2.09881   0.00011  -0.00137   0.00228   0.00090  -2.09791
   D112       0.06393  -0.00004  -0.00026  -0.00114  -0.00140   0.06253
   D113       2.13747  -0.00007   0.00094  -0.00293  -0.00199   2.13548
   D114      -0.18740  -0.00014   0.00242  -0.00627  -0.00384  -0.19124
   D115       3.06767   0.00009   0.00223  -0.00079   0.00142   3.06910
   D116       2.89854  -0.00023   0.00224  -0.00651  -0.00425   2.89429
   D117      -0.12957  -0.00001   0.00204  -0.00103   0.00101  -0.12856
   D118      -2.61069  -0.00000  -0.00006   0.00488   0.00478  -2.60591
   D119      -0.49600   0.00002  -0.00151   0.00786   0.00633  -0.48967
   D120       1.63995  -0.00004   0.00002   0.00378   0.00381   1.64376
   D121       1.50258   0.00001  -0.00051   0.00608   0.00554   1.50812
   D122      -2.66592   0.00003  -0.00196   0.00907   0.00709  -2.65883
   D123      -0.52997  -0.00003  -0.00043   0.00499   0.00457  -0.52539
   D124      -0.51394   0.00007  -0.00135   0.00838   0.00703  -0.50691
   D125       1.60075   0.00009  -0.00280   0.01136   0.00858   1.60933
   D126      -2.54648   0.00004  -0.00126   0.00728   0.00606  -2.54042
   D127      -3.02089   0.00013   0.00017   0.00941   0.00959  -3.01130
   D128       1.14903   0.00015   0.00210   0.00693   0.00901   1.15804
   D129      -0.96320   0.00007   0.00072   0.00795   0.00869  -0.95451
   D130      -0.54521  -0.00005   0.00022  -0.00636  -0.00613  -0.55134
   D131      -2.69142  -0.00006  -0.00043  -0.00571  -0.00614  -2.69756
   D132       1.56855  -0.00010   0.00028  -0.00683  -0.00655   1.56200
   D133       1.49914   0.00001  -0.00264  -0.00125  -0.00389   1.49525
   D134      -0.64707  -0.00000  -0.00329  -0.00061  -0.00389  -0.65096
   D135      -2.67029  -0.00004  -0.00258  -0.00173  -0.00430  -2.67459
   D136      -2.68717   0.00009  -0.00157  -0.00124  -0.00282  -2.68999
   D137       1.44980   0.00008  -0.00222  -0.00060  -0.00282   1.44698
   D138      -0.57341   0.00004  -0.00151  -0.00172  -0.00323  -0.57665
   D139       1.13717   0.00009   0.00089   0.00149   0.00238   1.13955
   D140      -3.00354   0.00006   0.00071   0.00133   0.00204  -3.00151
   D141      -0.97343   0.00007   0.00128   0.00074   0.00201  -0.97142
   D142      -3.01385   0.00003   0.00104   0.00109   0.00213  -3.01172
   D143      -0.87138  -0.00000   0.00086   0.00093   0.00179  -0.86959
   D144       1.15873   0.00001   0.00143   0.00033   0.00177   1.16050
   D145      -0.96465  -0.00001   0.00163  -0.00031   0.00132  -0.96332
   D146       1.17782  -0.00005   0.00145  -0.00047   0.00098   1.17880
   D147      -3.07525  -0.00003   0.00202  -0.00107   0.00096  -3.07429
   D148      -0.95137  -0.00003  -0.00074   0.00046  -0.00028  -0.95165
   D149       1.15440   0.00000  -0.00129   0.00135   0.00005   1.15446
   D150      -3.08834  -0.00001  -0.00092   0.00064  -0.00028  -3.08862
   D151       1.18006   0.00007  -0.00113   0.00170   0.00058   1.18064
   D152      -2.99735   0.00010  -0.00167   0.00258   0.00091  -2.99644
   D153      -0.95690   0.00009  -0.00131   0.00188   0.00057  -0.95633
   D154      -3.09422  -0.00004  -0.00098   0.00086  -0.00011  -3.09433
   D155      -0.98844  -0.00002  -0.00152   0.00174   0.00022  -0.98822
   D156       1.05200  -0.00003  -0.00115   0.00103  -0.00012   1.05188
   D157       0.10286   0.00004  -0.00266  -0.00230  -0.00496   0.09790
   D158       2.22106   0.00006  -0.00440  -0.00149  -0.00589   2.21517
   D159      -1.99579   0.00001  -0.00351  -0.00269  -0.00621  -2.00199
   D160       2.22501  -0.00004  -0.00201  -0.00413  -0.00614   2.21888
   D161      -1.93997  -0.00002  -0.00375  -0.00331  -0.00707  -1.94704
   D162       0.12637  -0.00007  -0.00287  -0.00451  -0.00738   0.11899
   D163      -1.96964  -0.00005  -0.00172  -0.00498  -0.00670  -1.97634
   D164       0.14856  -0.00004  -0.00346  -0.00416  -0.00762   0.14093
   D165       2.21490  -0.00009  -0.00258  -0.00536  -0.00794   2.20696
   D166       0.40858  -0.00005   0.00277   0.00272   0.00549   0.41407
   D167       2.79697   0.00003  -0.00682   0.01397   0.00715   2.80412
   D168      -1.48819  -0.00000  -0.00094   0.00763   0.00669  -1.48149
   D169      -1.69771  -0.00001   0.00334   0.00373   0.00706  -1.69065
   D170       0.69068   0.00007  -0.00625   0.01498   0.00872   0.69940
   D171       2.68871   0.00004  -0.00037   0.00863   0.00827   2.69698
   D172       2.51656  -0.00001   0.00397   0.00279   0.00675   2.52331
   D173      -1.37824   0.00007  -0.00562   0.01404   0.00841  -1.36982
   D174       0.61979   0.00004   0.00026   0.00770   0.00796   0.62775
   D175       1.06003   0.00014   0.00405   0.00946   0.01351   1.07354
   D176      -2.95620   0.00006  -0.00069   0.01274   0.01204  -2.94416
   D177      -0.97746   0.00006   0.00313   0.00877   0.01190  -0.96556
   D178      -1.19649   0.00007   0.01415  -0.00196   0.01219  -1.18430
   D179       1.07046   0.00000   0.00941   0.00131   0.01073   1.08119
   D180       3.04920  -0.00000   0.01323  -0.00265   0.01059   3.05979
   D181       3.06478   0.00005   0.00833   0.00376   0.01209   3.07687
   D182      -0.95145  -0.00002   0.00359   0.00704   0.01062  -0.94083
   D183       1.02729  -0.00003   0.00740   0.00308   0.01048   1.03777
   D184       1.18076   0.00003  -0.00720   0.00729   0.00008   1.18085
   D185      -1.01967  -0.00000  -0.00263   0.00234  -0.00029  -1.01996
   D186      -2.99641   0.00001  -0.00500   0.00526   0.00026  -2.99615
   D187      -1.07833   0.00001  -0.00231   0.00353   0.00122  -1.07711
   D188       3.00442  -0.00003   0.00226  -0.00142   0.00084   3.00526
   D189       1.02768  -0.00002  -0.00011   0.00150   0.00139   1.02907
   D190      -3.06097   0.00005  -0.00624   0.00749   0.00125  -3.05972
   D191       1.02178   0.00001  -0.00167   0.00254   0.00088   1.02265
   D192      -0.95497   0.00002  -0.00404   0.00546   0.00143  -0.95354
   D193       0.94237   0.00007   0.00274   0.00114   0.00388   0.94625
   D194       3.03198   0.00004   0.00306   0.00030   0.00336   3.03534
   D195      -1.15381   0.00005   0.00271   0.00104   0.00375  -1.15006
   D196      -2.98021  -0.00004  -0.00477   0.00682   0.00205  -2.97816
   D197      -0.89060  -0.00008  -0.00446   0.00599   0.00153  -0.88907
   D198       1.20679  -0.00006  -0.00480   0.00672   0.00192   1.20872
   D199      -1.01930   0.00003  -0.00096   0.00425   0.00329  -1.01601
   D200       1.07031   0.00000  -0.00065   0.00341   0.00276   1.07308
   D201      -3.11548   0.00002  -0.00099   0.00415   0.00316  -3.11232
   D202       2.95611  -0.00002   0.00500  -0.01162  -0.00662   2.94949
   D203       0.84333  -0.00005   0.00489  -0.01275  -0.00786   0.83548
   D204      -1.20439  -0.00000   0.00617  -0.01334  -0.00717  -1.21157
   D205      -1.11832  -0.00003   0.00027  -0.00681  -0.00653  -1.12485
   D206       3.05208  -0.00006   0.00017  -0.00793  -0.00777   3.04432
   D207       1.00436  -0.00001   0.00144  -0.00852  -0.00708   0.99728
   D208       0.86584  -0.00000   0.00327  -0.01015  -0.00688   0.85896
   D209      -1.24694  -0.00004   0.00316  -0.01127  -0.00811  -1.25505
   D210       2.98852   0.00001   0.00443  -0.01186  -0.00743   2.98109
   D211      -3.07246  -0.00006  -0.00039  -0.00726  -0.00766  -3.08011
   D212      -0.94853  -0.00005  -0.00018  -0.00720  -0.00738  -0.95590
   D213       1.06693  -0.00005  -0.00015  -0.00750  -0.00766   1.05927
   D214      -0.94590  -0.00000  -0.00061  -0.00562  -0.00623  -0.95213
   D215       1.17803   0.00001  -0.00040  -0.00556  -0.00595   1.17208
   D216      -3.08970   0.00001  -0.00038  -0.00586  -0.00623  -3.09593
   D217       1.08009  -0.00003  -0.00079  -0.00591  -0.00670   1.07339
   D218      -3.07916  -0.00002  -0.00058  -0.00585  -0.00642  -3.08558
   D219      -1.06370  -0.00002  -0.00055  -0.00615  -0.00670  -1.07041
   D220       2.99819   0.00001  -0.00047  -0.00322  -0.00369   2.99450
   D221      -1.12358   0.00000  -0.00029  -0.00314  -0.00343  -1.12701
   D222       0.94848  -0.00000  -0.00057  -0.00307  -0.00364   0.94484
   D223       0.87322  -0.00001  -0.00072  -0.00321  -0.00392   0.86929
   D224       3.03463  -0.00001  -0.00054  -0.00313  -0.00367   3.03097
   D225      -1.17649  -0.00002  -0.00082  -0.00306  -0.00388  -1.18037
   D226      -1.13518   0.00000  -0.00056  -0.00302  -0.00358  -1.13876
   D227       1.02624  -0.00000  -0.00039  -0.00293  -0.00332   1.02291
   D228       3.09830  -0.00001  -0.00067  -0.00286  -0.00353   3.09476
   D229       1.09591  -0.00002   0.00017  -0.00272  -0.00254   1.09337
   D230      -0.99575  -0.00003   0.00027  -0.00294  -0.00268  -0.99843
   D231      -3.09765  -0.00002  -0.00005  -0.00247  -0.00252  -3.10017
   D232      -1.08585  -0.00001   0.00026  -0.00325  -0.00298  -1.08883
   D233       3.10567  -0.00002   0.00036  -0.00347  -0.00312   3.10256
   D234       1.00377  -0.00001   0.00004  -0.00300  -0.00296   1.00082
   D235      -3.14082   0.00000  -0.00004  -0.00234  -0.00238   3.13998
   D236       1.05070  -0.00001   0.00005  -0.00257  -0.00251   1.04819
   D237      -1.05119   0.00000  -0.00026  -0.00209  -0.00235  -1.05355
   D238      -1.03390  -0.00005  -0.00117  -0.00499  -0.00616  -1.04006
   D239      -3.11707  -0.00005  -0.00096  -0.00518  -0.00613  -3.12320
   D240       1.06773  -0.00002  -0.00149  -0.00415  -0.00563   1.06210
   D241       1.12784  -0.00000  -0.00117  -0.00425  -0.00542   1.12241
   D242      -0.95534  -0.00000  -0.00096  -0.00444  -0.00539  -0.96073
   D243      -3.05372   0.00002  -0.00149  -0.00341  -0.00489  -3.05862
   D244      -3.10165  -0.00003  -0.00072  -0.00537  -0.00609  -3.10774
   D245       1.09836  -0.00003  -0.00051  -0.00555  -0.00606   1.09230
   D246      -1.00002  -0.00000  -0.00104  -0.00452  -0.00556  -1.00558
         Item               Value     Threshold  Converged?
 Maximum Force            0.000878     0.000450     NO 
 RMS     Force            0.000111     0.000300     YES
 Maximum Displacement     0.095571     0.001800     NO 
 RMS     Displacement     0.018000     0.001200     NO 
 Predicted change in Energy=-3.925703D-05
 Lowest energy point so far.  Saving SCF results.
 GradGradGradGradGradGradGradGradGradGradGradGradGradGradGradGradGradGrad

 Leave Link  103 at Mon Jul 28 19:04:54 2025, MaxMem=  1073741824 cpu:               1.1 elap:               0.2
 (Enter /app/gaussian/g16/l202.exe)
 Stoichiometry    C27H44O
 Framework group  C1[X(C27H44O)]
 Deg. of freedom   210
 Full point group                 C1      NOp   1
 RotChk:  IX=0 Diff= 2.38D-02
 Largest Abelian subgroup         C1      NOp   1
 Largest concise Abelian subgroup C1      NOp   1
                         Standard orientation:                         
 ---------------------------------------------------------------------
 Center     Atomic      Atomic             Coordinates (Angstroms)
 Number     Number       Type             X           Y           Z
 ---------------------------------------------------------------------
      1          6           0       -1.083905   -0.472798   -0.667751
      2          6           0       -0.645922    0.890914   -0.074615
      3          6           0        0.245903    0.672214    1.190199
      4          6           0        1.534224   -0.062234    0.925924
      5          6           0        2.369594    0.490753   -0.241182
      6          6           0        3.561761   -0.454731   -0.663888
      7          6           0        3.078587   -1.622158   -1.577437
      8          6           0        4.203767   -1.109576    0.571827
      9          6           0        3.454805   -1.407748    1.655298
     10          6           0        2.067824   -0.967005    1.778810
     11          6           0        5.670604   -1.437094    0.451533
     12          6           0        6.515574   -0.160439    0.248388
     13          8           0        7.670053   -0.590484   -0.565107
     14          6           0        5.704591    0.950729   -0.451613
     15          6           0        4.664018    0.363860   -1.420900
     16          6           0        1.488284    0.911094   -1.459245
     17          6           0        0.200272    1.683646   -1.090200
     18          6           0       -0.744339    0.177769    2.265900
     19          6           0       -2.080538    0.921187    1.927166
     20          6           0       -1.819421    1.690331    0.585597
     21          6           0       -3.047687    2.148812   -0.256654
     22          6           0       -3.966023    1.102679   -0.957149
     23          6           0       -4.836518    0.166479   -0.091735
     24          6           0       -5.869358   -0.603387   -0.940429
     25          6           0       -6.842081   -1.502835   -0.139248
     26          6           0       -7.951636   -2.052056   -1.059666
     27          6           0       -6.117991   -2.659913    0.579719
     28          6           0       -3.896573    3.146588    0.569676
     29          1           0       -0.252152   -1.185360   -0.668282
     30          1           0       -1.896834   -0.925173   -0.092233
     31          1           0       -1.426529   -0.363281   -1.702463
     32          1           0        0.554417    1.693296    1.492266
     33          1           0        2.827888    1.423125    0.148114
     34          1           0        3.881082   -2.359229   -1.693871
     35          1           0        2.813048   -1.267200   -2.579292
     36          1           0        2.212159   -2.130402   -1.140959
     37          1           0        3.896522   -1.946100    2.492010
     38          1           0        1.502905   -1.300438    2.645199
     39          1           0        6.026827   -1.998033    1.321532
     40          1           0        5.855961   -2.065137   -0.432397
     41          1           0        6.890645    0.205664    1.214046
     42          1           0        8.329160    0.127659   -0.649918
     43          1           0        6.391515    1.627475   -0.978407
     44          1           0        5.198531    1.553965    0.315218
     45          1           0        4.198494    1.161616   -2.011224
     46          1           0        5.180097   -0.289867   -2.136211
     47          1           0        1.195054    0.018980   -2.020500
     48          1           0        2.088976    1.522507   -2.143993
     49          1           0        0.457178    2.662037   -0.654709
     50          1           0       -0.371080    1.882922   -2.008370
     51          1           0       -0.395289    0.397086    3.281231
     52          1           0       -0.874877   -0.909629    2.197494
     53          1           0       -2.903838    0.208908    1.831721
     54          1           0       -2.361915    1.620178    2.723142
     55          1           0       -1.350582    2.646383    0.879453
     56          1           0       -2.614583    2.730902   -1.088481
     57          1           0       -3.371142    0.492215   -1.645397
     58          1           0       -4.647594    1.687788   -1.596094
     59          1           0       -5.369950    0.746176    0.675484
     60          1           0       -4.201221   -0.549551    0.441348
     61          1           0       -6.462642    0.125127   -1.514731
     62          1           0       -5.342630   -1.224969   -1.683143
     63          1           0       -7.321558   -0.872591    0.628585
     64          1           0       -7.523023   -2.688121   -1.846469
     65          1           0       -8.502348   -1.238501   -1.548353
     66          1           0       -8.671783   -2.657392   -0.495126
     67          1           0       -5.594540   -3.297591   -0.146470
     68          1           0       -6.833510   -3.289962    1.122892
     69          1           0       -5.380007   -2.296842    1.303733
     70          1           0       -3.280599    3.980296    0.929504
     71          1           0       -4.706808    3.566028   -0.040004
     72          1           0       -4.350743    2.668420    1.445037
 ---------------------------------------------------------------------
 Rotational constants (GHZ):           0.4109573           0.0648918           0.0627392
 Leave Link  202 at Mon Jul 28 19:04:54 2025, MaxMem=  1073741824 cpu:               0.1 elap:               0.0
 (Enter /app/gaussian/g16/l301.exe)
 Standard basis: 6-31+G (6D, 7F)
 Ernie: Thresh=  0.10000D-02 Tol=  0.10000D-05 Strict=F.
 There are   452 symmetry adapted cartesian basis functions of A   symmetry.
 There are   452 symmetry adapted basis functions of A   symmetry.
   452 basis functions,   904 primitive gaussians,   452 cartesian basis functions
   107 alpha electrons      107 beta electrons
       nuclear repulsion energy      2772.2341087544 Hartrees.
 IExCor=  402 DFT=T Ex+Corr=B3LYP ExCW=0 ScaHFX=  0.200000
 ScaDFX=  0.800000  0.720000  1.000000  0.810000 ScalE2=  1.000000  1.000000
 IRadAn=      5 IRanWt=     -1 IRanGd=            0 ICorTp=0 IEmpDi=  4
 NAtoms=   72 NActive=   72 NUniq=   72 SFac= 1.00D+00 NAtFMM=   60 NAOKFM=T Big=T
 Integral buffers will be    131072 words long.
 Raffenetti 2 integral format.
 Two-electron integral symmetry is turned on.
 Leave Link  301 at Mon Jul 28 19:04:54 2025, MaxMem=  1073741824 cpu:               0.4 elap:               0.1
 (Enter /app/gaussian/g16/l302.exe)
 NPDir=0 NMtPBC=     1 NCelOv=     1 NCel=       1 NClECP=     1 NCelD=      1
         NCelK=      1 NCelE2=     1 NClLst=     1 CellRange=     0.0.
 One-electron integrals computed using PRISM.
 One-electron integral symmetry used in STVInt
 NBasis=   452 RedAO= T EigKep=  1.31D-06  NBF=   452
 NBsUse=   449 1.00D-06 EigRej=  7.64D-07 NBFU=   449
 Precomputing XC quadrature grid using
 IXCGrd= 4 IRadAn=           5 IRanWt=          -1 IRanGd=           0 AccXCQ= 0.00D+00.
 Generated NRdTot=       0 NPtTot=           0 NUsed=           0 NTot=          32
 NSgBfM=   438   438   438   438   438 MxSgAt=    72 MxSgA2=    72.
 Leave Link  302 at Mon Jul 28 19:04:56 2025, MaxMem=  1073741824 cpu:              10.5 elap:               1.3
 (Enter /app/gaussian/g16/l303.exe)
 DipDrv:  MaxL=1.
 Leave Link  303 at Mon Jul 28 19:04:56 2025, MaxMem=  1073741824 cpu:               0.5 elap:               0.1
 (Enter /app/gaussian/g16/l401.exe)
 Initial guess from the checkpoint file:  "/work/scr/Gau-256556.chk"
 B after Tr=    -0.000000   -0.000000   -0.000000
         Rot=    0.999965   -0.008333    0.000017    0.000274 Ang=  -0.96 deg.
 Guess basis will be translated and rotated to current coordinates.
 JPrj=2 DoOrth=T DoCkMO=T.
 Generating alternative initial guess.
 ExpMin= 4.38D-02 ExpMax= 5.48D+03 ExpMxC= 8.25D+02 IAcc=3 IRadAn=         5 AccDes= 0.00D+00
 Harris functional with IExCor=  402 and IRadAn=       5 diagonalized for initial guess.
 HarFok:  IExCor=  402 AccDes= 0.00D+00 IRadAn=         5 IDoV= 1 UseB2=F ITyADJ=14
 ICtDFT=  3500011 ScaDFX=  1.000000  1.000000  1.000000  1.000000
 FoFCou: FMM=F IPFlag=           0 FMFlag=      100000 FMFlg1=        2001
         NFxFlg=           0 DoJE=T BraDBF=F KetDBF=T FulRan=T
         wScrn=  0.000000 ICntrl=       500 IOpCl=  0 I1Cent=   200000004 NGrid=           0
         NMat0=    1 NMatS0=      1 NMatT0=    0 NMatD0=    1 NMtDS0=    0 NMtDT0=    0
 Petite list used in FoFCou.
 Harris En= -1130.40115230999    
 Leave Link  401 at Mon Jul 28 19:05:05 2025, MaxMem=  1073741824 cpu:              75.5 elap:               9.5
 (Enter /app/gaussian/g16/l502.exe)
 Integral symmetry usage will be decided dynamically.
 Closed shell SCF:
 Using DIIS extrapolation, IDIIS=  1040.
 NGot=  1073741824 LenX=  1073322182 LenY=  1073117426
 Requested convergence on RMS density matrix=1.00D-08 within 128 cycles.
 Requested convergence on MAX density matrix=1.00D-06.
 Requested convergence on             energy=1.00D-06.
 No special actions if energy rises.
 Fock matrices will be formed incrementally for  20 cycles.

 Cycle   1  Pass 1  IDiag  1:
 FoFJK:  IHMeth= 1 ICntrl=       0 DoSepK=F KAlg= 0 I1Cent=           0 FoldK=F
 IRaf= 990000000 NMat=       1 IRICut=       1 DoRegI=T DoRafI=F ISym2E= 0 IDoP0=0 IntGTp=1.
 FoFCou: FMM=T IPFlag=           0 FMFlag=      100000 FMFlg1=        2001
         NFxFlg=           0 DoJE=F BraDBF=F KetDBF=F FulRan=T
         wScrn=  0.000000 ICntrl=         0 IOpCl=  0 I1Cent=           0 NGrid=           0
         NMat0=    1 NMatS0=      1 NMatT0=    0 NMatD0=    1 NMtDS0=    0 NMtDT0=    0
 Symmetry not used in FoFCou.
 FMM levels:  10  Number of levels for PrismC:   9
 E= -1130.32376153203    
 DIIS: error= 2.23D-03 at cycle   1 NSaved=   1.
 NSaved= 1 IEnMin= 1 EnMin= -1130.32376153203     IErMin= 1 ErrMin= 2.23D-03
 ErrMax= 2.23D-03  0.00D+00 EMaxC= 1.00D-01 BMatC= 1.57D-03 BMatP= 1.57D-03
 IDIUse=3 WtCom= 9.78D-01 WtEn= 2.23D-02
 Coeff-Com:  0.100D+01
 Coeff-En:   0.100D+01
 Coeff:      0.100D+01
 Gap=     0.456 Goal=   None    Shift=    0.000
 GapD=    0.456 DampG=2.000 DampE=1.000 DampFc=2.0000 IDamp=-1.
 RMSDP=1.33D-03 MaxDP=1.29D-01              OVMax= 5.06D-03

 Cycle   2  Pass 1  IDiag  1:
 RMSU=  1.22D-03    CP:  9.95D-01
 E= -1130.32502202296     Delta-E=       -0.001260490934 Rises=F Damp=F
 DIIS: error= 6.30D-05 at cycle   2 NSaved=   2.
 NSaved= 2 IEnMin= 2 EnMin= -1130.32502202296     IErMin= 2 ErrMin= 6.30D-05
 ErrMax= 6.30D-05  0.00D+00 EMaxC= 1.00D-01 BMatC= 6.51D-06 BMatP= 1.57D-03
 IDIUse=1 WtCom= 1.00D+00 WtEn= 0.00D+00
 Coeff-Com: -0.126D-01 0.101D+01
 Coeff:     -0.126D-01 0.101D+01
 Gap=     0.172 Goal=   None    Shift=    0.000
 RMSDP=2.76D-04 MaxDP=1.66D-02 DE=-1.26D-03 OVMax= 1.11D-03

 Cycle   3  Pass 1  IDiag  1:
 RMSU=  2.71D-04    CP:  9.95D-01  1.02D+00
 E= -1130.32502468056     Delta-E=       -0.000002657595 Rises=F Damp=F
 DIIS: error= 6.33D-05 at cycle   3 NSaved=   3.
 NSaved= 3 IEnMin= 3 EnMin= -1130.32502468056     IErMin= 2 ErrMin= 6.30D-05
 ErrMax= 6.33D-05  0.00D+00 EMaxC= 1.00D-01 BMatC= 7.66D-06 BMatP= 6.51D-06
 IDIUse=1 WtCom= 1.00D+00 WtEn= 0.00D+00
 Coeff-Com: -0.100D-01 0.537D+00 0.473D+00
 Coeff:     -0.100D-01 0.537D+00 0.473D+00
 Gap=     0.172 Goal=   None    Shift=    0.000
 RMSDP=1.71D-04 MaxDP=1.16D-02 DE=-2.66D-06 OVMax= 1.06D-03

 Cycle   4  Pass 1  IDiag  1:
 RMSU=  8.83D-05    CP:  9.95D-01  1.02D+00  4.90D-01
 E= -1130.32503267908     Delta-E=       -0.000007998518 Rises=F Damp=F
 DIIS: error= 2.74D-05 at cycle   4 NSaved=   4.
 NSaved= 4 IEnMin= 4 EnMin= -1130.32503267908     IErMin= 4 ErrMin= 2.74D-05
 ErrMax= 2.74D-05  0.00D+00 EMaxC= 1.00D-01 BMatC= 4.34D-07 BMatP= 6.51D-06
 IDIUse=1 WtCom= 1.00D+00 WtEn= 0.00D+00
 Coeff-Com: -0.292D-02 0.120D+00 0.212D+00 0.671D+00
 Coeff:     -0.292D-02 0.120D+00 0.212D+00 0.671D+00
 Gap=     0.172 Goal=   None    Shift=    0.000
 RMSDP=3.84D-05 MaxDP=2.48D-03 DE=-8.00D-06 OVMax= 5.39D-04

 Cycle   5  Pass 1  IDiag  1:
 RMSU=  2.18D-05    CP:  9.95D-01  1.02D+00  5.31D-01  6.65D-01
 E= -1130.32503295510     Delta-E=       -0.000000276028 Rises=F Damp=F
 DIIS: error= 1.94D-05 at cycle   5 NSaved=   5.
 NSaved= 5 IEnMin= 5 EnMin= -1130.32503295510     IErMin= 5 ErrMin= 1.94D-05
 ErrMax= 1.94D-05  0.00D+00 EMaxC= 1.00D-01 BMatC= 2.06D-07 BMatP= 4.34D-07
 IDIUse=1 WtCom= 1.00D+00 WtEn= 0.00D+00
 Coeff-Com: -0.407D-03-0.346D-02 0.705D-01 0.460D+00 0.473D+00
 Coeff:     -0.407D-03-0.346D-02 0.705D-01 0.460D+00 0.473D+00
 Gap=     0.172 Goal=   None    Shift=    0.000
 RMSDP=1.53D-05 MaxDP=1.09D-03 DE=-2.76D-07 OVMax= 2.53D-04

 Cycle   6  Pass 1  IDiag  1:
 RMSU=  9.84D-06    CP:  9.95D-01  1.02D+00  5.36D-01  7.11D-01  7.17D-01
 E= -1130.32503317568     Delta-E=       -0.000000220580 Rises=F Damp=F
 DIIS: error= 2.06D-06 at cycle   6 NSaved=   6.
 NSaved= 6 IEnMin= 6 EnMin= -1130.32503317568     IErMin= 6 ErrMin= 2.06D-06
 ErrMax= 2.06D-06  0.00D+00 EMaxC= 1.00D-01 BMatC= 5.46D-09 BMatP= 2.06D-07
 IDIUse=1 WtCom= 1.00D+00 WtEn= 0.00D+00
 Coeff-Com:  0.202D-05-0.102D-01 0.194D-01 0.176D+00 0.229D+00 0.586D+00
 Coeff:      0.202D-05-0.102D-01 0.194D-01 0.176D+00 0.229D+00 0.586D+00
 Gap=     0.172 Goal=   None    Shift=    0.000
 RMSDP=7.02D-06 MaxDP=6.52D-04 DE=-2.21D-07 OVMax= 3.27D-05

 Cycle   7  Pass 1  IDiag  1:
 RMSU=  2.90D-06    CP:  9.95D-01  1.02D+00  5.36D-01  7.51D-01  7.20D-01
                    CP:  6.39D-01
 E= -1130.32503318184     Delta-E=       -0.000000006155 Rises=F Damp=F
 DIIS: error= 7.10D-07 at cycle   7 NSaved=   7.
 NSaved= 7 IEnMin= 7 EnMin= -1130.32503318184     IErMin= 7 ErrMin= 7.10D-07
 ErrMax= 7.10D-07  0.00D+00 EMaxC= 1.00D-01 BMatC= 6.30D-10 BMatP= 5.46D-09
 IDIUse=1 WtCom= 1.00D+00 WtEn= 0.00D+00
 Coeff-Com:  0.303D-04-0.532D-02 0.537D-02 0.614D-01 0.898D-01 0.323D+00
 Coeff-Com:  0.525D+00
 Coeff:      0.303D-04-0.532D-02 0.537D-02 0.614D-01 0.898D-01 0.323D+00
 Coeff:      0.525D+00
 Gap=     0.172 Goal=   None    Shift=    0.000
 RMSDP=1.53D-06 MaxDP=1.04D-04 DE=-6.16D-09 OVMax= 1.19D-05

 Cycle   8  Pass 1  IDiag  1:
 RMSU=  6.88D-07    CP:  9.95D-01  1.02D+00  5.39D-01  7.50D-01  7.02D-01
                    CP:  6.61D-01  7.21D-01
 E= -1130.32503318246     Delta-E=       -0.000000000619 Rises=F Damp=F
 DIIS: error= 3.34D-07 at cycle   8 NSaved=   8.
 NSaved= 8 IEnMin= 8 EnMin= -1130.32503318246     IErMin= 8 ErrMin= 3.34D-07
 ErrMax= 3.34D-07  0.00D+00 EMaxC= 1.00D-01 BMatC= 5.34D-11 BMatP= 6.30D-10
 IDIUse=1 WtCom= 1.00D+00 WtEn= 0.00D+00
 Coeff-Com:  0.168D-04-0.219D-02 0.149D-02 0.201D-01 0.323D-01 0.135D+00
 Coeff-Com:  0.295D+00 0.519D+00
 Coeff:      0.168D-04-0.219D-02 0.149D-02 0.201D-01 0.323D-01 0.135D+00
 Coeff:      0.295D+00 0.519D+00
 Gap=     0.172 Goal=   None    Shift=    0.000
 RMSDP=3.49D-07 MaxDP=3.29D-05 DE=-6.19D-10 OVMax= 4.13D-06

 Cycle   9  Pass 1  IDiag  1:
 RMSU=  2.38D-07    CP:  9.95D-01  1.02D+00  5.39D-01  7.49D-01  7.09D-01
                    CP:  6.72D-01  7.14D-01  8.76D-01
 E= -1130.32503318244     Delta-E=        0.000000000023 Rises=F Damp=F
 DIIS: error= 1.42D-07 at cycle   9 NSaved=   9.
 NSaved= 9 IEnMin= 8 EnMin= -1130.32503318246     IErMin= 9 ErrMin= 1.42D-07
 ErrMax= 1.42D-07  0.00D+00 EMaxC= 1.00D-01 BMatC= 8.20D-12 BMatP= 5.34D-11
 IDIUse=1 WtCom= 1.00D+00 WtEn= 0.00D+00
 Coeff-Com:  0.525D-05-0.492D-03 0.112D-03 0.268D-02 0.591D-02 0.313D-01
 Coeff-Com:  0.997D-01 0.313D+00 0.548D+00
 Coeff:      0.525D-05-0.492D-03 0.112D-03 0.268D-02 0.591D-02 0.313D-01
 Coeff:      0.997D-01 0.313D+00 0.548D+00
 Gap=     0.172 Goal=   None    Shift=    0.000
 RMSDP=1.54D-07 MaxDP=8.04D-06 DE= 2.27D-11 OVMax= 1.33D-06

 Cycle  10  Pass 1  IDiag  1:
 RMSU=  1.05D-07    CP:  9.95D-01  1.02D+00  5.39D-01  7.49D-01  7.10D-01
                    CP:  6.74D-01  7.14D-01  8.53D-01  8.12D-01
 E= -1130.32503318239     Delta-E=        0.000000000044 Rises=F Damp=F
 DIIS: error= 2.03D-08 at cycle  10 NSaved=  10.
 NSaved=10 IEnMin= 8 EnMin= -1130.32503318246     IErMin=10 ErrMin= 2.03D-08
 ErrMax= 2.03D-08  0.00D+00 EMaxC= 1.00D-01 BMatC= 4.08D-13 BMatP= 8.20D-12
 IDIUse=1 WtCom= 1.00D+00 WtEn= 0.00D+00
 Coeff-Com:  0.242D-06 0.508D-04-0.125D-03-0.129D-02-0.122D-02-0.292D-02
 Coeff-Com:  0.820D-02 0.641D-01 0.233D+00 0.701D+00
 Coeff:      0.242D-06 0.508D-04-0.125D-03-0.129D-02-0.122D-02-0.292D-02
 Coeff:      0.820D-02 0.641D-01 0.233D+00 0.701D+00
 Gap=     0.172 Goal=   None    Shift=    0.000
 RMSDP=4.33D-08 MaxDP=2.23D-06 DE= 4.37D-11 OVMax= 1.75D-07

 Cycle  11  Pass 1  IDiag  1:
 RMSU=  2.03D-08    CP:  9.95D-01  1.02D+00  5.39D-01  7.49D-01  7.10D-01
                    CP:  6.73D-01  7.24D-01  8.61D-01  8.11D-01  8.20D-01
 E= -1130.32503318236     Delta-E=        0.000000000030 Rises=F Damp=F
 DIIS: error= 8.18D-09 at cycle  11 NSaved=  11.
 NSaved=11 IEnMin= 8 EnMin= -1130.32503318246     IErMin=11 ErrMin= 8.18D-09
 ErrMax= 8.18D-09  0.00D+00 EMaxC= 1.00D-01 BMatC= 4.56D-14 BMatP= 4.08D-13
 IDIUse=1 WtCom= 1.00D+00 WtEn= 0.00D+00
 Coeff-Com: -0.190D-06 0.557D-04-0.695D-04-0.830D-03-0.940D-03-0.344D-02
 Coeff-Com: -0.168D-02 0.127D-01 0.891D-01 0.360D+00 0.545D+00
 Coeff:     -0.190D-06 0.557D-04-0.695D-04-0.830D-03-0.940D-03-0.344D-02
 Coeff:     -0.168D-02 0.127D-01 0.891D-01 0.360D+00 0.545D+00
 Gap=     0.172 Goal=   None    Shift=    0.000
 RMSDP=7.98D-09 MaxDP=4.80D-07 DE= 3.05D-11 OVMax= 3.97D-08

 SCF Done:  E(RB3LYP) =  -1130.32503318     A.U. after   11 cycles
            NFock= 11  Conv=0.80D-08     -V/T= 2.0059
 KE= 1.123703845868D+03 PE=-8.163875650095D+03 EE= 3.137612662290D+03
 Leave Link  502 at Mon Jul 28 19:08:37 2025, MaxMem=  1073741824 cpu:            1686.6 elap:             211.5
 (Enter /app/gaussian/g16/l701.exe)
 ... and contract with generalized density number  0.
 Compute integral first derivatives.
 Leave Link  701 at Mon Jul 28 19:08:37 2025, MaxMem=  1073741824 cpu:               1.9 elap:               0.3
 (Enter /app/gaussian/g16/l702.exe)
 L702 exits ... SP integral derivatives will be done elsewhere.
 Leave Link  702 at Mon Jul 28 19:08:37 2025, MaxMem=  1073741824 cpu:               0.2 elap:               0.0
 (Enter /app/gaussian/g16/l703.exe)
 Integral derivatives from FoFJK, PRISM(SPDF).
 Compute integral first derivatives, UseDBF=F ICtDFT=           0.
 Calling FoFJK, ICntrl=      2127 FMM=T ISym2X=0 I1Cent= 0 IOpClX= 0 NMat=1 NMatS=1 NMatT=0.
 FoFJK:  IHMeth= 1 ICntrl=    2127 DoSepK=F KAlg= 0 I1Cent=           0 FoldK=F
 IRaf=         0 NMat=       1 IRICut=       1 DoRegI=T DoRafI=F ISym2E= 0 IDoP0=0 IntGTp=1.
 FoFCou: FMM=T IPFlag=           0 FMFlag=      100000 FMFlg1=        2001
         NFxFlg=           0 DoJE=F BraDBF=F KetDBF=F FulRan=T
         wScrn=  0.000000 ICntrl=      2127 IOpCl=  0 I1Cent=           0 NGrid=           0
         NMat0=    1 NMatS0=      1 NMatT0=    0 NMatD0=    1 NMtDS0=    0 NMtDT0=    0
 Symmetry not used in FoFCou.
 FMM levels:  10  Number of levels for PrismC:   9
 Leave Link  703 at Mon Jul 28 19:09:27 2025, MaxMem=  1073741824 cpu:             397.2 elap:              49.8
 (Enter /app/gaussian/g16/l716.exe)
 Dipole        =-2.11205138D-01 9.16104196D-01 1.34263099D-01
 ***** Axes restored to original set *****
 -------------------------------------------------------------------
 Center     Atomic                   Forces (Hartrees/Bohr)
 Number     Number              X              Y              Z
 -------------------------------------------------------------------
      1        6           0.000169995   -0.000022273    0.000021728
      2        6          -0.000190635   -0.000032736    0.000158910
      3        6           0.000016205   -0.000145749    0.000070333
      4        6           0.000119998    0.000029062   -0.000166763
      5        6          -0.000057388    0.000047480    0.000125617
      6        6           0.000033608    0.000050314   -0.000009676
      7        6           0.000177208    0.000001054    0.000096819
      8        6          -0.000036307    0.000084424    0.000161838
      9        6          -0.000101759   -0.000076680   -0.000150237
     10        6           0.000030731   -0.000023471    0.000088000
     11        6          -0.000125073   -0.000189150    0.000021859
     12        6           0.000289484    0.000063482    0.000313228
     13        8           0.000154221   -0.000226111   -0.000148271
     14        6          -0.000216888   -0.000099628   -0.000032467
     15        6          -0.000001255    0.000081091    0.000008443
     16        6          -0.000129101    0.000134021   -0.000195881
     17        6           0.000048575    0.000068361   -0.000055022
     18        6           0.000025562    0.000169924   -0.000149991
     19        6          -0.000061326   -0.000173215    0.000191133
     20        6           0.000252267    0.000168806   -0.000058245
     21        6           0.000020780   -0.000034408    0.000039344
     22        6          -0.000072567    0.000010563   -0.000066703
     23        6           0.000049866    0.000060546    0.000024338
     24        6           0.000044593   -0.000036100   -0.000025481
     25        6          -0.000040605    0.000049543    0.000093092
     26        6          -0.000074735   -0.000035350   -0.000014148
     27        6          -0.000012232   -0.000046653   -0.000033460
     28        6           0.000028161    0.000016284   -0.000059076
     29        1          -0.000007138   -0.000014228   -0.000021966
     30        1           0.000004683    0.000001903   -0.000024529
     31        1           0.000117740   -0.000100703   -0.000012464
     32        1          -0.000017495   -0.000007341   -0.000002594
     33        1          -0.000102309   -0.000046841    0.000101760
     34        1           0.000005700   -0.000030553   -0.000011062
     35        1           0.000147358   -0.000146352    0.000043637
     36        1          -0.000014904    0.000020214   -0.000066420
     37        1          -0.000037066    0.000026640    0.000001210
     38        1           0.000022862    0.000012009   -0.000004948
     39        1           0.000083138    0.000098044   -0.000057191
     40        1          -0.000001197    0.000067862   -0.000109231
     41        1          -0.000107641    0.000011980    0.000045993
     42        1           0.000026072    0.000172756    0.000037655
     43        1          -0.000009772   -0.000012144    0.000018825
     44        1          -0.000009735    0.000036623   -0.000016686
     45        1           0.000038330   -0.000042299    0.000018479
     46        1          -0.000029230   -0.000021366    0.000003623
     47        1          -0.000069109   -0.000052967   -0.000166841
     48        1          -0.000055796   -0.000006682    0.000005641
     49        1          -0.000007888   -0.000008689    0.000040941
     50        1          -0.000004349   -0.000000783   -0.000019377
     51        1          -0.000041140    0.000026249    0.000028866
     52        1           0.000001546    0.000052969    0.000044452
     53        1          -0.000111667    0.000019521    0.000028072
     54        1           0.000049154    0.000052495   -0.000038162
     55        1          -0.000119139    0.000025688    0.000025288
     56        1           0.000001276    0.000016074   -0.000013626
     57        1          -0.000173663    0.000029772   -0.000142830
     58        1           0.000011207   -0.000053201   -0.000030957
     59        1          -0.000006391   -0.000018655   -0.000002043
     60        1           0.000020103   -0.000010688   -0.000068160
     61        1           0.000032652   -0.000020265    0.000021830
     62        1          -0.000026660   -0.000007420   -0.000004225
     63        1           0.000022310    0.000004108    0.000017784
     64        1          -0.000011506   -0.000018134   -0.000021230
     65        1           0.000025682   -0.000015743    0.000018608
     66        1          -0.000001154    0.000025672    0.000006361
     67        1           0.000005794   -0.000010409   -0.000007972
     68        1           0.000025485    0.000026870    0.000012233
     69        1          -0.000030182    0.000016100    0.000008062
     70        1          -0.000018301   -0.000002053    0.000040581
     71        1           0.000006313   -0.000003938   -0.000005845
     72        1           0.000024644    0.000014475    0.000029197
 -------------------------------------------------------------------
 Cartesian Forces:  Max     0.000313228 RMS     0.000080899
 Leave Link  716 at Mon Jul 28 19:09:27 2025, MaxMem=  1073741824 cpu:               0.2 elap:               0.0
 (Enter /app/gaussian/g16/l103.exe)

 GradGradGradGradGradGradGradGradGradGradGradGradGradGradGradGradGradGrad
 Berny optimization.
 Using GEDIIS/GDIIS optimizer.
 FormGI is forming the generalized inverse of G from B-inverse, IUseBI=4.
 Internal  Forces:  Max     0.000509727 RMS     0.000076337
 Search for a local minimum.
 Step number   6 out of a maximum of  432
 All quantities printed in internal units (Hartrees-Bohrs-Radians)
 RMS Force = .76337D-04 SwitMx=.10000D-02 MixMth= 2
 Mixed Optimization -- En-DIIS/RFO-DIIS
 Swapping is turned off.
 Update second derivatives using D2CorX and points    2    3    4    5    6
 DE= -2.65D-05 DEPred=-3.93D-05 R= 6.74D-01
 TightC=F SS=  1.41D+00  RLast= 9.28D-02 DXNew= 1.4270D+00 2.7850D-01
 Trust test= 6.74D-01 RLast= 9.28D-02 DXMaxT set to 8.49D-01
 ITU=  1  1  0  1  1  0
     Eigenvalues ---    0.00187   0.00233   0.00234   0.00239   0.00247
     Eigenvalues ---    0.00256   0.00299   0.00312   0.00322   0.00357
     Eigenvalues ---    0.00362   0.00381   0.00441   0.00504   0.00559
     Eigenvalues ---    0.00649   0.00924   0.01035   0.01156   0.01270
     Eigenvalues ---    0.01742   0.01980   0.02019   0.02112   0.02358
     Eigenvalues ---    0.02448   0.02522   0.02712   0.02817   0.02977
     Eigenvalues ---    0.03038   0.03222   0.03462   0.03492   0.03553
     Eigenvalues ---    0.03591   0.03750   0.03883   0.04019   0.04250
     Eigenvalues ---    0.04358   0.04417   0.04617   0.04622   0.04682
     Eigenvalues ---    0.04705   0.04743   0.04806   0.04845   0.04872
     Eigenvalues ---    0.04894   0.04912   0.04956   0.05062   0.05186
     Eigenvalues ---    0.05309   0.05352   0.05356   0.05406   0.05416
     Eigenvalues ---    0.05430   0.05432   0.05460   0.05477   0.05549
     Eigenvalues ---    0.05577   0.05585   0.05601   0.05678   0.05810
     Eigenvalues ---    0.05893   0.05947   0.05972   0.06365   0.06744
     Eigenvalues ---    0.06955   0.07151   0.07237   0.07549   0.07708
     Eigenvalues ---    0.08013   0.08080   0.08153   0.08184   0.08283
     Eigenvalues ---    0.08471   0.08721   0.09010   0.09112   0.09422
     Eigenvalues ---    0.09803   0.10205   0.10888   0.11108   0.12043
     Eigenvalues ---    0.12121   0.12491   0.12919   0.12973   0.14350
     Eigenvalues ---    0.14694   0.15053   0.15407   0.15794   0.15909
     Eigenvalues ---    0.15956   0.15993   0.16000   0.16000   0.16000
     Eigenvalues ---    0.16000   0.16000   0.16000   0.16000   0.16000
     Eigenvalues ---    0.16000   0.16000   0.16002   0.16020   0.16058
     Eigenvalues ---    0.16417   0.16664   0.17036   0.17586   0.18857
     Eigenvalues ---    0.19053   0.19261   0.19500   0.20694   0.21093
     Eigenvalues ---    0.21855   0.22068   0.22451   0.22607   0.22973
     Eigenvalues ---    0.24359   0.24704   0.25651   0.25820   0.26118
     Eigenvalues ---    0.26365   0.26751   0.27137   0.27405   0.27725
     Eigenvalues ---    0.27855   0.27977   0.28039   0.28367   0.28451
     Eigenvalues ---    0.28518   0.28583   0.28649   0.28745   0.28992
     Eigenvalues ---    0.29347   0.29359   0.29447   0.29783   0.30830
     Eigenvalues ---    0.31032   0.32551   0.33176   0.33258   0.33561
     Eigenvalues ---    0.33653   0.33725   0.33819   0.33893   0.33937
     Eigenvalues ---    0.33952   0.33961   0.33965   0.34003   0.34021
     Eigenvalues ---    0.34054   0.34067   0.34071   0.34099   0.34105
     Eigenvalues ---    0.34112   0.34126   0.34153   0.34178   0.34187
     Eigenvalues ---    0.34196   0.34199   0.34210   0.34213   0.34218
     Eigenvalues ---    0.34224   0.34230   0.34259   0.34272   0.34278
     Eigenvalues ---    0.34342   0.34352   0.34460   0.34558   0.34743
     Eigenvalues ---    0.34813   0.35131   0.35193   0.35276   0.37471
     Eigenvalues ---    0.37716   0.41255   0.52849   0.53241   0.55021
 En-DIIS/RFO-DIIS/Sim-DIIS IScMMF=       -3 using points:     6    5    4    3    2
 RFO step:  Lambda=-3.50442848D-05.
 NNeg= 0 NGDIIS= 5 SimSw=  2.50D-01 Rises=F DC= -2.65D-05 SmlDif=  1.00D-05
 NRisDI= 0 DoIntr=F SqrtH=F CThrHd= 10.0 CDAdj=  3.0
 RMS Error=  0.4001732086D-02 NUsed= 5 OKEnD=T EnDIS=F
 InvSVX:  RCond= 3.75D-04 Info=           0 Equed=N FErr=  1.55D-14 BErr=  5.44D-17
 DidBck=F Rises=F RFO-DIIS coefs:    0.99547    0.34447   -0.32514    0.03967   -0.05448
 Iteration  1 RMS(Cart)=  0.01188482 RMS(Int)=  0.00001991
 Iteration  2 RMS(Cart)=  0.00005174 RMS(Int)=  0.00000573
 Iteration  3 RMS(Cart)=  0.00000000 RMS(Int)=  0.00000573
 ITry= 1 IFail=0 DXMaxC= 5.26D-02 DCOld= 1.00D+10 DXMaxT= 8.49D-01 DXLimC= 3.00D+00 Rises=F
 Variable       Old X    -DE/DX   Delta X   Delta X   Delta X     New X
                                 (Linear)    (Quad)   (Total)
    R1        2.92959   0.00011  -0.00003   0.00058   0.00055   2.93014
    R2        2.06971   0.00001   0.00002   0.00001   0.00003   2.06974
    R3        2.06726   0.00001   0.00010  -0.00017  -0.00007   2.06719
    R4        2.07010   0.00012   0.00014   0.00012   0.00027   2.07037
    R5        2.95362   0.00005   0.00035  -0.00029   0.00006   2.95368
    R6        2.91280  -0.00001   0.00001  -0.00005  -0.00004   2.91276
    R7        2.95912  -0.00021  -0.00059   0.00004  -0.00055   2.95858
    R8        2.84655  -0.00003   0.00003  -0.00016  -0.00013   2.84642
    R9        2.91667   0.00010  -0.00007   0.00043   0.00036   2.91702
   R10        2.09499   0.00000  -0.00006   0.00006  -0.00001   2.09498
   R11        2.90660  -0.00002   0.00027  -0.00001   0.00026   2.90686
   R12        2.55690   0.00000   0.00009  -0.00005   0.00005   2.55695
   R13        2.98426  -0.00046  -0.00095   0.00025  -0.00071   2.98355
   R14        2.95008  -0.00021  -0.00042   0.00006  -0.00036   2.94972
   R15        2.09658   0.00014  -0.00010   0.00025   0.00016   2.09673
   R16        2.94635   0.00006   0.00002   0.00032   0.00033   2.94668
   R17        2.90796   0.00001   0.00058  -0.00033   0.00024   2.90820
   R18        2.96279   0.00008  -0.00026   0.00037   0.00012   2.96291
   R19        2.07081  -0.00001  -0.00008   0.00002  -0.00006   2.07074
   R20        2.07028   0.00016   0.00004   0.00007   0.00011   2.07039
   R21        2.06968   0.00001  -0.00001   0.00004   0.00002   2.06970
   R22        2.55201  -0.00007   0.00024  -0.00022   0.00002   2.55203
   R23        2.84926  -0.00011   0.00029  -0.00065  -0.00036   2.84890
   R24        2.76005   0.00012  -0.00025   0.00012  -0.00012   2.75993
   R25        2.05713   0.00004  -0.00004   0.00008   0.00003   2.05716
   R26        2.05359   0.00002   0.00003   0.00003   0.00006   2.05364
   R27        2.91844  -0.00002   0.00013  -0.00009   0.00004   2.91848
   R28        2.06875   0.00008  -0.00018   0.00019   0.00000   2.06876
   R29        2.07881   0.00007  -0.00006   0.00022   0.00016   2.07896
   R30        2.78985  -0.00008   0.00140  -0.00043   0.00097   2.79082
   R31        2.91679  -0.00013  -0.00013  -0.00039  -0.00053   2.91626
   R32        2.07630   0.00007  -0.00012   0.00014   0.00002   2.07632
   R33        1.84898  -0.00006   0.00015  -0.00014   0.00000   1.84899
   R34        2.90719   0.00005  -0.00013   0.00017   0.00004   2.90722
   R35        2.07643   0.00002  -0.00013   0.00007  -0.00006   2.07637
   R36        2.07700  -0.00001   0.00024  -0.00006   0.00018   2.07718
   R37        2.07148   0.00006  -0.00003   0.00005   0.00002   2.07150
   R38        2.07471   0.00002  -0.00007   0.00005  -0.00002   2.07469
   R39        2.92267   0.00003   0.00028  -0.00011   0.00016   2.92283
   R40        2.06738   0.00015   0.00022  -0.00006   0.00015   2.06753
   R41        2.07314   0.00004  -0.00008   0.00008  -0.00000   2.07314
   R42        2.08119   0.00004  -0.00004   0.00010   0.00006   2.08125
   R43        2.07800   0.00000  -0.00000   0.00001   0.00000   2.07801
   R44        2.95960   0.00010   0.00021   0.00010   0.00031   2.95991
   R45        2.07081   0.00005   0.00002   0.00009   0.00011   2.07092
   R46        2.07367  -0.00002   0.00001  -0.00000   0.00001   2.07368
   R47        2.96366  -0.00004  -0.00035  -0.00007  -0.00042   2.96324
   R48        2.06515  -0.00010   0.00047  -0.00054  -0.00007   2.06508
   R49        2.07124  -0.00000  -0.00008  -0.00001  -0.00009   2.07115
   R50        2.94472  -0.00008  -0.00133   0.00091  -0.00043   2.94429
   R51        2.08744   0.00007  -0.00003   0.00015   0.00013   2.08757
   R52        2.94484   0.00006  -0.00032   0.00055   0.00023   2.94507
   R53        2.92693   0.00003   0.00007  -0.00011  -0.00003   2.92690
   R54        2.08585  -0.00002   0.00009  -0.00009   0.00000   2.08586
   R55        2.91727  -0.00001   0.00022  -0.00005   0.00016   2.91743
   R56        2.07030   0.00021   0.00011   0.00014   0.00025   2.07054
   R57        2.08311   0.00004  -0.00004   0.00004   0.00000   2.08311
   R58        2.91516  -0.00006   0.00036  -0.00041  -0.00005   2.91512
   R59        2.07803  -0.00001  -0.00017   0.00006  -0.00011   2.07792
   R60        2.07050   0.00000   0.00031  -0.00019   0.00012   2.07062
   R61        2.92577  -0.00008   0.00041  -0.00047  -0.00005   2.92572
   R62        2.08088   0.00004  -0.00006   0.00010   0.00004   2.08093
   R63        2.08336   0.00002  -0.00005   0.00006   0.00001   2.08337
   R64        2.91528  -0.00002   0.00026  -0.00019   0.00007   2.91536
   R65        2.91536   0.00000   0.00023  -0.00010   0.00013   2.91549
   R66        2.08442   0.00003  -0.00007   0.00009   0.00002   2.08444
   R67        2.07642   0.00003  -0.00006   0.00009   0.00003   2.07645
   R68        2.07351   0.00003  -0.00003   0.00006   0.00003   2.07355
   R69        2.07332   0.00001   0.00002   0.00001   0.00003   2.07335
   R70        2.07697   0.00001  -0.00004   0.00002  -0.00002   2.07695
   R71        2.07351   0.00003  -0.00006   0.00007   0.00002   2.07353
   R72        2.07064   0.00003  -0.00007   0.00011   0.00003   2.07067
   R73        2.07351   0.00004  -0.00007   0.00011   0.00004   2.07355
   R74        2.07364   0.00001  -0.00004   0.00002  -0.00002   2.07362
   R75        2.07110   0.00002  -0.00001   0.00006   0.00005   2.07115
    A1        1.93685   0.00003   0.00029  -0.00006   0.00023   1.93709
    A2        1.95241   0.00002  -0.00028   0.00035   0.00008   1.95249
    A3        1.94100  -0.00002  -0.00026   0.00012  -0.00015   1.94086
    A4        1.87083  -0.00002   0.00025  -0.00024   0.00001   1.87084
    A5        1.87770   0.00002   0.00019  -0.00012   0.00007   1.87778
    A6        1.88162  -0.00004  -0.00017  -0.00008  -0.00025   1.88137
    A7        1.92594   0.00015   0.00039   0.00006   0.00045   1.92640
    A8        1.93416  -0.00001   0.00000  -0.00009  -0.00008   1.93408
    A9        1.98086  -0.00018  -0.00197   0.00051  -0.00146   1.97940
   A10        1.86701  -0.00003   0.00023   0.00012   0.00035   1.86736
   A11        1.72931  -0.00001   0.00100  -0.00059   0.00041   1.72972
   A12        2.01158   0.00010   0.00061  -0.00008   0.00053   2.01211
   A13        1.99792  -0.00004  -0.00016  -0.00027  -0.00042   1.99750
   A14        1.81598   0.00006  -0.00014   0.00046   0.00031   1.81629
   A15        1.82389  -0.00001   0.00043  -0.00044  -0.00001   1.82388
   A16        2.11158  -0.00003   0.00037  -0.00013   0.00024   2.11182
   A17        1.83265   0.00003  -0.00021   0.00015  -0.00007   1.83258
   A18        1.85845  -0.00001  -0.00027   0.00020  -0.00007   1.85838
   A19        2.00682  -0.00007   0.00020  -0.00036  -0.00018   2.00665
   A20        2.15644   0.00015   0.00014   0.00008   0.00019   2.15663
   A21        2.09962  -0.00008   0.00006  -0.00009  -0.00007   2.09955
   A22        1.97998   0.00010   0.00013   0.00005   0.00017   1.98015
   A23        1.96302   0.00014   0.00028  -0.00035  -0.00007   1.96295
   A24        1.83406  -0.00003  -0.00029   0.00025  -0.00004   1.83403
   A25        1.95901  -0.00037  -0.00061   0.00011  -0.00050   1.95852
   A26        1.86004   0.00008   0.00039   0.00001   0.00040   1.86044
   A27        1.85532   0.00009   0.00015  -0.00005   0.00009   1.85541
   A28        1.95108  -0.00025  -0.00117   0.00053  -0.00064   1.95043
   A29        1.93348   0.00004   0.00071  -0.00024   0.00047   1.93395
   A30        1.92558   0.00004  -0.00014  -0.00004  -0.00018   1.92540
   A31        1.85581   0.00014   0.00051  -0.00039   0.00012   1.85594
   A32        1.90276   0.00010  -0.00012   0.00039   0.00026   1.90303
   A33        1.89294  -0.00006   0.00026  -0.00027  -0.00001   1.89294
   A34        1.91659   0.00004   0.00037  -0.00019   0.00017   1.91676
   A35        1.94801  -0.00006  -0.00043   0.00019  -0.00024   1.94777
   A36        1.93812   0.00007  -0.00015   0.00030   0.00015   1.93827
   A37        1.87367   0.00004   0.00015  -0.00009   0.00006   1.87373
   A38        1.88552  -0.00005   0.00021  -0.00024  -0.00003   1.88548
   A39        1.89975  -0.00004  -0.00011   0.00000  -0.00011   1.89964
   A40        2.10231  -0.00001  -0.00015   0.00008  -0.00011   2.10220
   A41        2.02000   0.00002  -0.00001   0.00000  -0.00003   2.01997
   A42        2.15987  -0.00001   0.00034  -0.00019   0.00013   2.16000
   A43        2.12689  -0.00003   0.00013   0.00001   0.00013   2.12703
   A44        2.09533  -0.00001  -0.00010  -0.00019  -0.00029   2.09505
   A45        2.05960   0.00004   0.00002   0.00014   0.00016   2.05976
   A46        2.12114  -0.00003   0.00010   0.00002   0.00012   2.12126
   A47        2.09752   0.00001  -0.00014  -0.00005  -0.00020   2.09733
   A48        2.05837   0.00003   0.00006   0.00003   0.00009   2.05846
   A49        1.94250  -0.00004   0.00081  -0.00049   0.00031   1.94281
   A50        1.94385  -0.00005   0.00043  -0.00060  -0.00017   1.94368
   A51        1.93055  -0.00002   0.00021  -0.00003   0.00016   1.93071
   A52        1.92845   0.00008  -0.00089   0.00070  -0.00018   1.92827
   A53        1.84841   0.00008  -0.00064   0.00077   0.00012   1.84853
   A54        1.86629  -0.00005   0.00003  -0.00027  -0.00024   1.86605
   A55        1.83334  -0.00013   0.00115  -0.00192  -0.00077   1.83256
   A56        1.94689   0.00011  -0.00039   0.00049   0.00008   1.94697
   A57        1.92475   0.00001  -0.00069   0.00114   0.00043   1.92518
   A58        1.95054  -0.00003   0.00066  -0.00111  -0.00047   1.95007
   A59        1.89062   0.00004  -0.00010   0.00012   0.00004   1.89067
   A60        1.91567  -0.00001  -0.00052   0.00117   0.00064   1.91630
   A61        1.93986  -0.00013   0.00087  -0.00131  -0.00045   1.93941
   A62        1.94604  -0.00007   0.00006  -0.00034  -0.00028   1.94576
   A63        1.90958   0.00007  -0.00011   0.00033   0.00021   1.90979
   A64        1.89718  -0.00005   0.00041  -0.00059  -0.00018   1.89700
   A65        1.93450   0.00001   0.00034   0.00027   0.00061   1.93511
   A66        1.91508   0.00004  -0.00044   0.00021  -0.00024   1.91484
   A67        1.85908  -0.00001  -0.00024   0.00012  -0.00013   1.85895
   A68        1.95033   0.00006  -0.00040   0.00035  -0.00006   1.95027
   A69        1.91923  -0.00000  -0.00014  -0.00015  -0.00028   1.91895
   A70        1.91152  -0.00003  -0.00019   0.00016  -0.00002   1.91150
   A71        1.92722  -0.00004   0.00040  -0.00011   0.00030   1.92752
   A72        1.89621  -0.00000   0.00033  -0.00019   0.00014   1.89635
   A73        1.85677   0.00001   0.00002  -0.00009  -0.00008   1.85670
   A74        2.00255  -0.00015   0.00014  -0.00015  -0.00002   2.00253
   A75        1.90926   0.00002  -0.00067   0.00073   0.00006   1.90932
   A76        1.90494   0.00001  -0.00005  -0.00015  -0.00019   1.90475
   A77        1.88234   0.00011   0.00053  -0.00027   0.00026   1.88260
   A78        1.90344   0.00006   0.00023  -0.00011   0.00012   1.90356
   A79        1.85565  -0.00005  -0.00020  -0.00004  -0.00024   1.85541
   A80        1.93640   0.00008  -0.00014   0.00013  -0.00001   1.93638
   A81        1.90119  -0.00002  -0.00014   0.00012  -0.00002   1.90117
   A82        1.93704  -0.00002   0.00017  -0.00012   0.00005   1.93709
   A83        1.92181  -0.00003   0.00005  -0.00002   0.00003   1.92184
   A84        1.90074  -0.00002   0.00024  -0.00018   0.00007   1.90081
   A85        1.86542   0.00002  -0.00018   0.00005  -0.00013   1.86530
   A86        1.81788  -0.00009   0.00046  -0.00025   0.00019   1.81807
   A87        1.95765   0.00002  -0.00015  -0.00046  -0.00060   1.95705
   A88        1.92872   0.00003  -0.00019   0.00073   0.00054   1.92926
   A89        1.95752   0.00009   0.00007  -0.00008   0.00000   1.95752
   A90        1.93414  -0.00002  -0.00007   0.00019   0.00012   1.93426
   A91        1.86918  -0.00003  -0.00012  -0.00010  -0.00023   1.86896
   A92        1.85018  -0.00001   0.00035  -0.00027   0.00006   1.85024
   A93        1.93078  -0.00012  -0.00059  -0.00042  -0.00102   1.92976
   A94        1.94408   0.00009   0.00089  -0.00015   0.00075   1.94483
   A95        1.95021   0.00005  -0.00100   0.00037  -0.00063   1.94958
   A96        1.92966   0.00001   0.00029   0.00066   0.00095   1.93060
   A97        1.86052  -0.00001   0.00007  -0.00018  -0.00011   1.86041
   A98        1.80808   0.00012  -0.00078   0.00055  -0.00025   1.80783
   A99        2.10949  -0.00051  -0.00229  -0.00024  -0.00253   2.10696
   A100       1.80898   0.00008   0.00193  -0.00147   0.00047   1.80945
   A101       2.06624   0.00034  -0.00179   0.00295   0.00114   2.06738
   A102       1.84167  -0.00015   0.00225  -0.00184   0.00041   1.84207
   A103       1.79639   0.00012   0.00211  -0.00098   0.00113   1.79752
   A104       2.10592  -0.00022  -0.00444   0.00322  -0.00121   2.10471
   A105       1.91047   0.00013   0.00052   0.00059   0.00110   1.91157
   A106       1.82679   0.00000   0.00152  -0.00190  -0.00038   1.82641
   A107       1.92762   0.00012   0.00069   0.00004   0.00072   1.92834
   A108       1.81986  -0.00002   0.00161  -0.00213  -0.00051   1.81935
   A109       1.85187  -0.00003   0.00086  -0.00061   0.00025   1.85212
   A110       2.07993   0.00008  -0.00157   0.00150  -0.00007   2.07986
   A111       1.91396  -0.00004  -0.00104   0.00085  -0.00019   1.91377
   A112       1.84273  -0.00002   0.00151  -0.00154  -0.00004   1.84269
   A113       1.89699  -0.00001  -0.00086   0.00107   0.00021   1.89719
   A114       1.87358  -0.00004   0.00190  -0.00192  -0.00003   1.87356
   A115       1.84145   0.00002   0.00048  -0.00034   0.00015   1.84160
   A116       1.95171  -0.00005   0.00083  -0.00060   0.00022   1.95194
   A117       1.92299   0.00002   0.00012   0.00013   0.00025   1.92324
   A118       1.91996   0.00003  -0.00094   0.00072  -0.00022   1.91974
   A119       1.89879  -0.00001   0.00024  -0.00033  -0.00010   1.89869
   A120       1.90683   0.00000   0.00010  -0.00021  -0.00011   1.90672
   A121       1.86119   0.00001  -0.00039   0.00033  -0.00006   1.86113
   A122       2.01073  -0.00011   0.00078  -0.00087  -0.00008   2.01064
   A123       1.89388   0.00003  -0.00033   0.00037   0.00004   1.89392
   A124       1.90935   0.00002   0.00008  -0.00008   0.00001   1.90936
   A125       1.89202   0.00003  -0.00019   0.00031   0.00012   1.89214
   A126       1.89784   0.00004  -0.00018   0.00012  -0.00006   1.89778
   A127       1.85362  -0.00001  -0.00024   0.00023  -0.00001   1.85361
   A128       1.92832  -0.00004   0.00039  -0.00039   0.00000   1.92832
   A129       1.96275   0.00000   0.00029  -0.00036  -0.00007   1.96268
   A130       1.87694   0.00001  -0.00014   0.00026   0.00012   1.87706
   A131       1.92688   0.00001  -0.00010  -0.00007  -0.00017   1.92671
   A132       1.88188   0.00001  -0.00028   0.00037   0.00008   1.88197
   A133       1.88405   0.00000  -0.00020   0.00025   0.00005   1.88409
   A134       1.93131   0.00001  -0.00008   0.00013   0.00005   1.93136
   A135       1.94200   0.00001   0.00014   0.00000   0.00015   1.94215
   A136       1.94069  -0.00004   0.00035  -0.00037  -0.00002   1.94067
   A137       1.88186  -0.00000  -0.00011   0.00010  -0.00002   1.88184
   A138       1.88084   0.00001  -0.00016   0.00008  -0.00008   1.88076
   A139       1.88474   0.00001  -0.00017   0.00007  -0.00009   1.88465
   A140       1.92919  -0.00001  -0.00004  -0.00005  -0.00010   1.92909
   A141       1.93403  -0.00001   0.00000  -0.00005  -0.00005   1.93398
   A142       1.95576   0.00002   0.00027  -0.00004   0.00023   1.95600
   A143       1.88021   0.00001  -0.00008   0.00010   0.00002   1.88022
   A144       1.88395  -0.00000   0.00001  -0.00001  -0.00000   1.88394
   A145       1.87796  -0.00001  -0.00017   0.00007  -0.00010   1.87786
   A146       1.93558   0.00000   0.00002  -0.00003  -0.00001   1.93557
   A147       1.93317  -0.00002   0.00015  -0.00012   0.00003   1.93320
   A148       1.95214   0.00005   0.00012   0.00015   0.00027   1.95241
   A149       1.88208   0.00000  -0.00013   0.00002  -0.00011   1.88197
   A150       1.87781  -0.00002  -0.00011   0.00005  -0.00007   1.87774
   A151       1.88026  -0.00002  -0.00007  -0.00006  -0.00012   1.88014
    D1       -0.73675  -0.00004   0.00318  -0.00763  -0.00445  -0.74120
    D2        1.32798   0.00000   0.00372  -0.00750  -0.00378   1.32420
    D3       -2.65957  -0.00002   0.00281  -0.00723  -0.00442  -2.66399
    D4        1.35175  -0.00003   0.00351  -0.00775  -0.00424   1.34752
    D5       -2.86670   0.00002   0.00405  -0.00761  -0.00356  -2.87026
    D6       -0.57107  -0.00001   0.00314  -0.00734  -0.00420  -0.57527
    D7       -2.82634  -0.00007   0.00292  -0.00752  -0.00460  -2.83094
    D8       -0.76160  -0.00002   0.00346  -0.00739  -0.00393  -0.76554
    D9        1.53403  -0.00005   0.00255  -0.00712  -0.00457   1.52946
   D10        1.08500   0.00007   0.00050  -0.00029   0.00021   1.08521
   D11       -1.25693   0.00008   0.00025  -0.00030  -0.00005  -1.25698
   D12        3.07990   0.00008   0.00044  -0.00052  -0.00008   3.07982
   D13       -1.02042   0.00001   0.00013  -0.00030  -0.00017  -1.02059
   D14        2.92083   0.00003  -0.00012  -0.00031  -0.00043   2.92040
   D15        0.97448   0.00002   0.00007  -0.00053  -0.00047   0.97401
   D16       -3.11542  -0.00008  -0.00106   0.00001  -0.00106  -3.11649
   D17        0.82583  -0.00007  -0.00131  -0.00000  -0.00132   0.82451
   D18       -1.12053  -0.00007  -0.00113  -0.00022  -0.00136  -1.12188
   D19       -1.06560  -0.00013  -0.00054  -0.00056  -0.00110  -1.06671
   D20        3.09933  -0.00012  -0.00042  -0.00070  -0.00112   3.09820
   D21        1.05016  -0.00011  -0.00021  -0.00078  -0.00099   1.04917
   D22        1.03458   0.00003   0.00009  -0.00046  -0.00038   1.03420
   D23       -1.08368   0.00003   0.00021  -0.00060  -0.00040  -1.08407
   D24       -3.13285   0.00004   0.00041  -0.00068  -0.00026  -3.13311
   D25        2.93793   0.00004   0.00173  -0.00114   0.00058   2.93851
   D26        0.81967   0.00005   0.00185  -0.00128   0.00056   0.82023
   D27       -1.22950   0.00006   0.00206  -0.00135   0.00070  -1.22880
   D28        1.29251   0.00014  -0.00050  -0.00021  -0.00070   1.29181
   D29       -1.07400  -0.00001   0.00531  -0.00503   0.00027  -1.07373
   D30       -3.07084   0.00004   0.00234  -0.00252  -0.00018  -3.07102
   D31       -0.74894   0.00005  -0.00073  -0.00015  -0.00087  -0.74981
   D32       -3.11545  -0.00010   0.00507  -0.00497   0.00010  -3.11535
   D33        1.17090  -0.00005   0.00211  -0.00246  -0.00035   1.17055
   D34       -2.73372   0.00005  -0.00182   0.00009  -0.00172  -2.73544
   D35        1.18295  -0.00009   0.00399  -0.00473  -0.00075   1.18220
   D36       -0.81388  -0.00004   0.00102  -0.00223  -0.00120  -0.81508
   D37        0.87408   0.00003  -0.00070   0.00150   0.00079   0.87487
   D38       -2.48268   0.00004   0.00091  -0.00045   0.00046  -2.48221
   D39        3.06902   0.00005  -0.00071   0.00178   0.00105   3.07008
   D40       -0.28773   0.00006   0.00090  -0.00017   0.00072  -0.28701
   D41       -1.11568   0.00005  -0.00101   0.00207   0.00106  -1.11462
   D42        1.81075   0.00005   0.00060   0.00013   0.00073   1.81148
   D43       -0.57841   0.00007   0.00320  -0.00011   0.00309  -0.57532
   D44       -2.69930   0.00001   0.00290   0.00039   0.00329  -2.69600
   D45        1.49952   0.00001   0.00328   0.00033   0.00361   1.50313
   D46       -2.85464   0.00010   0.00325  -0.00007   0.00318  -2.85146
   D47        1.30766   0.00003   0.00295   0.00043   0.00339   1.31105
   D48       -0.77671   0.00003   0.00333   0.00037   0.00370  -0.77300
   D49        1.34272   0.00008   0.00352  -0.00035   0.00317   1.34589
   D50       -0.77816   0.00002   0.00322   0.00016   0.00338  -0.77479
   D51       -2.86253   0.00002   0.00360   0.00009   0.00369  -2.85884
   D52       -2.95071   0.00016   0.00116  -0.00169  -0.00054  -2.95125
   D53       -0.70364  -0.00015   0.00066  -0.00180  -0.00114  -0.70478
   D54        1.30733   0.00002   0.00080  -0.00188  -0.00108   1.30625
   D55        0.39844   0.00012  -0.00042   0.00017  -0.00025   0.39819
   D56        2.64552  -0.00018  -0.00091   0.00006  -0.00085   2.64466
   D57       -1.62670  -0.00001  -0.00077  -0.00003  -0.00080  -1.62749
   D58       -2.87431  -0.00012  -0.00173   0.00149  -0.00025  -2.87456
   D59        0.14591  -0.00002  -0.00163   0.00149  -0.00014   0.14576
   D60        0.04121  -0.00011  -0.00002  -0.00059  -0.00061   0.04060
   D61        3.06143  -0.00001   0.00009  -0.00059  -0.00050   3.06093
   D62        1.40501  -0.00001   0.00157  -0.00057   0.00100   1.40601
   D63       -0.66139  -0.00005   0.00121  -0.00026   0.00095  -0.66044
   D64       -2.75775  -0.00003   0.00051   0.00026   0.00077  -2.75698
   D65       -0.84412   0.00003   0.00160  -0.00022   0.00138  -0.84274
   D66       -2.91052  -0.00002   0.00124   0.00009   0.00133  -2.90919
   D67        1.27631   0.00001   0.00054   0.00061   0.00115   1.27746
   D68       -2.86841   0.00006   0.00152  -0.00023   0.00129  -2.86712
   D69        1.34837   0.00002   0.00116   0.00008   0.00124   1.34961
   D70       -0.74799   0.00004   0.00046   0.00060   0.00107  -0.74693
   D71        0.75060   0.00007  -0.00051   0.00097   0.00046   0.75107
   D72       -1.36703   0.00001  -0.00079   0.00088   0.00009  -1.36693
   D73        2.89248   0.00005  -0.00015   0.00060   0.00045   2.89293
   D74        3.00857   0.00001  -0.00062   0.00084   0.00021   3.00878
   D75        0.89094  -0.00004  -0.00090   0.00074  -0.00016   0.89078
   D76       -1.13275  -0.00001  -0.00026   0.00047   0.00020  -1.13254
   D77       -1.24747  -0.00003  -0.00040   0.00088   0.00049  -1.24699
   D78        2.91808  -0.00008  -0.00067   0.00078   0.00012   2.91820
   D79        0.89440  -0.00005  -0.00003   0.00051   0.00048   0.89488
   D80       -2.95343  -0.00005  -0.00389  -0.00088  -0.00477  -2.95820
   D81        1.25404  -0.00009  -0.00404  -0.00077  -0.00480   1.24924
   D82       -0.86920  -0.00004  -0.00349  -0.00111  -0.00460  -0.87380
   D83       -0.84131  -0.00006  -0.00337  -0.00112  -0.00449  -0.84580
   D84       -2.91703  -0.00009  -0.00352  -0.00101  -0.00452  -2.92155
   D85        1.24292  -0.00005  -0.00297  -0.00135  -0.00433   1.23859
   D86        1.19621  -0.00000  -0.00284  -0.00146  -0.00430   1.19191
   D87       -0.87951  -0.00003  -0.00299  -0.00134  -0.00433  -0.88384
   D88       -3.00275   0.00001  -0.00245  -0.00168  -0.00413  -3.00688
   D89        0.56419  -0.00005  -0.00190   0.00088  -0.00101   0.56318
   D90       -2.62374  -0.00007   0.00013  -0.00143  -0.00129  -2.62503
   D91       -1.55918   0.00014  -0.00120   0.00063  -0.00058  -1.55976
   D92        1.53608   0.00012   0.00082  -0.00169  -0.00086   1.53522
   D93        2.67993  -0.00002  -0.00146   0.00052  -0.00095   2.67897
   D94       -0.50800  -0.00004   0.00056  -0.00180  -0.00123  -0.50923
   D95        1.55343   0.00005   0.00093   0.00081   0.00174   1.55517
   D96       -0.59325   0.00006   0.00079   0.00081   0.00160  -0.59165
   D97       -2.62771   0.00007   0.00096   0.00091   0.00187  -2.62584
   D98       -2.58090  -0.00017  -0.00071   0.00171   0.00100  -2.57991
   D99        1.55560  -0.00016  -0.00086   0.00171   0.00085   1.55646
   D100      -0.47886  -0.00015  -0.00069   0.00181   0.00112  -0.47774
   D101      -0.56717   0.00001  -0.00003   0.00130   0.00128  -0.56589
   D102      -2.71384   0.00003  -0.00017   0.00130   0.00114  -2.71271
   D103       1.53488   0.00003  -0.00000   0.00140   0.00140   1.53628
   D104      -0.14708   0.00006   0.00172  -0.00142   0.00030  -0.14679
   D105       3.05170   0.00004   0.00076  -0.00068   0.00008   3.05178
   D106       3.04471   0.00008  -0.00049   0.00108   0.00060   3.04532
   D107      -0.03969   0.00006  -0.00144   0.00182   0.00038  -0.03931
   D108       1.09173   0.00003  -0.00169   0.00104  -0.00065   1.09108
   D109      -3.03102   0.00007  -0.00193   0.00115  -0.00078  -3.03180
   D110      -0.95807  -0.00003  -0.00149   0.00041  -0.00109  -0.95916
   D111      -2.09791   0.00001   0.00041  -0.00135  -0.00095  -2.09885
   D112       0.06253   0.00005   0.00016  -0.00123  -0.00108   0.06145
   D113       2.13548  -0.00005   0.00060  -0.00198  -0.00138   2.13409
   D114      -0.19124   0.00006  -0.00052   0.00122   0.00070  -0.19054
   D115       3.06910  -0.00003  -0.00060   0.00122   0.00062   3.06971
   D116       2.89429   0.00009   0.00041   0.00049   0.00090   2.89519
   D117      -0.12856  -0.00001   0.00033   0.00049   0.00082  -0.12774
   D118      -2.60591   0.00003   0.00114   0.00232   0.00344  -2.60247
   D119      -0.48967  -0.00003   0.00240   0.00005   0.00244  -0.48724
   D120       1.64376   0.00004   0.00092   0.00267   0.00360   1.64737
   D121       1.50812   0.00006   0.00064   0.00294   0.00357   1.51169
   D122      -2.65883   0.00000   0.00190   0.00067   0.00256  -2.65626
   D123      -0.52539   0.00007   0.00043   0.00329   0.00373  -0.52166
   D124      -0.50691   0.00004   0.00139   0.00249   0.00388  -0.50303
   D125       1.60933  -0.00002   0.00265   0.00022   0.00287   1.61220
   D126      -2.54042   0.00005   0.00118   0.00284   0.00404  -2.53638
   D127      -3.01130   0.00011   0.00322   0.00485   0.00807  -3.00322
   D128       1.15804   0.00008   0.00266   0.00608   0.00873   1.16676
   D129      -0.95451   0.00008   0.00296   0.00523   0.00819  -0.94631
   D130      -0.55134   0.00007  -0.00253   0.00001  -0.00252  -0.55386
   D131      -2.69756   0.00005  -0.00292  -0.00034  -0.00326  -2.70081
   D132       1.56200   0.00005  -0.00279  -0.00033  -0.00312   1.55888
   D133       1.49525  -0.00004  -0.00094  -0.00281  -0.00375   1.49150
   D134      -0.65096  -0.00006  -0.00133  -0.00316  -0.00448  -0.65545
   D135      -2.67459  -0.00006  -0.00119  -0.00315  -0.00434  -2.67893
   D136      -2.68999  -0.00001  -0.00098  -0.00258  -0.00357  -2.69356
   D137       1.44698  -0.00003  -0.00137  -0.00293  -0.00430   1.44268
   D138      -0.57665  -0.00003  -0.00124  -0.00293  -0.00416  -0.58081
   D139       1.13955  -0.00008   0.00135  -0.00078   0.00057   1.14012
   D140      -3.00151  -0.00007   0.00119  -0.00080   0.00038  -3.00113
   D141      -0.97142  -0.00008   0.00163  -0.00108   0.00054  -0.97088
   D142      -3.01172  -0.00002   0.00148  -0.00041   0.00107  -3.01065
   D143      -0.86959  -0.00001   0.00131  -0.00043   0.00088  -0.86871
   D144       1.16050  -0.00003   0.00175  -0.00071   0.00105   1.16154
   D145      -0.96332   0.00000   0.00110   0.00004   0.00114  -0.96218
   D146       1.17880   0.00001   0.00094   0.00002   0.00095   1.17976
   D147      -3.07429  -0.00000   0.00137  -0.00026   0.00112  -3.07318
   D148      -0.95165  -0.00001   0.00019   0.00018   0.00038  -0.95126
   D149       1.15446  -0.00001  -0.00004   0.00041   0.00037   1.15483
   D150      -3.08862  -0.00002  -0.00009   0.00036   0.00028  -3.08835
   D151       1.18064  -0.00000  -0.00019   0.00083   0.00064   1.18128
   D152      -2.99644   0.00000  -0.00043   0.00105   0.00063  -2.99581
   D153      -0.95633  -0.00001  -0.00047   0.00101   0.00053  -0.95580
   D154      -3.09433   0.00003  -0.00002   0.00057   0.00056  -3.09377
   D155      -0.98822   0.00004  -0.00026   0.00080   0.00055  -0.98768
   D156       1.05188   0.00002  -0.00030   0.00075   0.00045   1.05233
   D157       0.09790  -0.00002  -0.00323  -0.00017  -0.00340   0.09450
   D158       2.21517  -0.00003  -0.00456  -0.00013  -0.00470   2.21047
   D159      -2.00199  -0.00007  -0.00429  -0.00072  -0.00501  -2.00701
   D160       2.21888   0.00000  -0.00308  -0.00093  -0.00401   2.21487
   D161      -1.94704  -0.00001  -0.00441  -0.00089  -0.00530  -1.95234
   D162       0.11899  -0.00005  -0.00414  -0.00148  -0.00562   0.11336
   D163      -1.97634   0.00001  -0.00323  -0.00098  -0.00421  -1.98055
   D164       0.14093  -0.00001  -0.00457  -0.00094  -0.00550   0.13543
   D165       2.20696  -0.00005  -0.00429  -0.00153  -0.00582   2.20113
   D166       0.41407  -0.00000   0.00235   0.00026   0.00260   0.41667
   D167       2.80412  -0.00032  -0.00355   0.00324  -0.00032   2.80380
   D168      -1.48149  -0.00008  -0.00026   0.00230   0.00204  -1.47945
   D169      -1.69065   0.00013   0.00344   0.00073   0.00416  -1.68649
   D170       0.69940  -0.00019  -0.00246   0.00371   0.00124   0.70065
   D171       2.69698   0.00004   0.00083   0.00278   0.00360   2.70058
   D172       2.52331   0.00010   0.00380   0.00029   0.00408   2.52739
   D173      -1.36982  -0.00021  -0.00210   0.00327   0.00116  -1.36866
   D174       0.62775   0.00002   0.00119   0.00233   0.00352   0.63127
   D175       1.07354  -0.00013   0.00051  -0.01205  -0.01154   1.06199
   D176      -2.94416  -0.00001  -0.00216  -0.00829  -0.01044  -2.95460
   D177      -0.96556   0.00001  -0.00019  -0.00967  -0.00986  -0.97542
   D178      -1.18430  -0.00012   0.00677  -0.01627  -0.00951  -1.19381
   D179       1.08119  -0.00001   0.00410  -0.01251  -0.00841   1.07278
   D180       3.05979   0.00002   0.00606  -0.01389  -0.00783   3.05196
   D181       3.07687  -0.00020   0.00339  -0.01480  -0.01142   3.06545
   D182      -0.94083  -0.00008   0.00073  -0.01104  -0.01032  -0.95115
   D183       1.03777  -0.00005   0.00269  -0.01242  -0.00974   1.02803
   D184       1.18085   0.00012  -0.00901   0.01729   0.00829   1.18914
   D185      -1.01996   0.00010  -0.00545   0.01369   0.00824  -1.01173
   D186      -2.99615   0.00011  -0.00631   0.01448   0.00818  -2.98798
   D187      -1.07711  -0.00001  -0.00622   0.01324   0.00702  -1.07009
   D188       3.00526  -0.00002  -0.00266   0.00963   0.00697   3.01223
   D189       1.02907  -0.00001  -0.00351   0.01042   0.00691   1.03598
   D190      -3.05972  -0.00002  -0.00834   0.01502   0.00668  -3.05304
   D191       1.02265  -0.00003  -0.00478   0.01142   0.00663   1.02929
   D192      -0.95354  -0.00003  -0.00564   0.01221   0.00657  -0.94697
   D193       0.94625   0.00005   0.00495  -0.00365   0.00130   0.94755
   D194       3.03534   0.00004   0.00490  -0.00373   0.00117   3.03651
   D195      -1.15006   0.00004   0.00500  -0.00379   0.00121  -1.14885
   D196      -2.97816  -0.00002  -0.00012   0.00135   0.00123  -2.97693
   D197      -0.88907  -0.00003  -0.00017   0.00127   0.00110  -0.88796
   D198       1.20872  -0.00003  -0.00007   0.00122   0.00115   1.20986
   D199      -1.01601  -0.00000   0.00253  -0.00143   0.00110  -1.01491
   D200       1.07308  -0.00001   0.00248  -0.00150   0.00098   1.07405
   D201      -3.11232  -0.00001   0.00258  -0.00156   0.00102  -3.11130
   D202       2.94949  -0.00003   0.00205  -0.01077  -0.00871   2.94078
   D203       0.83548  -0.00001   0.00112  -0.01003  -0.00891   0.82656
   D204      -1.21157  -0.00005   0.00209  -0.01095  -0.00886  -1.22042
   D205      -1.12485  -0.00004  -0.00155  -0.00730  -0.00885  -1.13370
   D206       3.04432  -0.00001  -0.00249  -0.00657  -0.00905   3.03527
   D207       0.99728  -0.00005  -0.00151  -0.00748  -0.00900   0.98828
   D208       0.85896  -0.00003  -0.00045  -0.00815  -0.00860   0.85037
   D209      -1.25505  -0.00001  -0.00138  -0.00741  -0.00880  -1.26385
   D210       2.98109  -0.00005  -0.00041  -0.00833  -0.00874   2.97235
   D211      -3.08011  -0.00001  -0.00179  -0.00347  -0.00527  -3.08538
   D212      -0.95590  -0.00002  -0.00176  -0.00338  -0.00514  -0.96105
   D213       1.05927   0.00000  -0.00219  -0.00294  -0.00514   1.05414
   D214      -0.95213  -0.00002  -0.00095  -0.00392  -0.00488  -0.95701
   D215       1.17208  -0.00003  -0.00092  -0.00383  -0.00475   1.16732
   D216      -3.09593  -0.00001  -0.00135  -0.00339  -0.00474  -3.10068
   D217       1.07339  -0.00001  -0.00123  -0.00383  -0.00506   1.06833
   D218      -3.08558  -0.00002  -0.00119  -0.00374  -0.00494  -3.09052
   D219      -1.07041  -0.00000  -0.00162  -0.00330  -0.00493  -1.07533
   D220       2.99450   0.00001  -0.00307   0.00060  -0.00247   2.99203
   D221      -1.12701  -0.00001  -0.00270  -0.00004  -0.00274  -1.12975
   D222       0.94484   0.00000  -0.00286   0.00022  -0.00264   0.94220
   D223       0.86929   0.00001  -0.00302   0.00047  -0.00255   0.86674
   D224       3.03097  -0.00000  -0.00265  -0.00017  -0.00282   3.02814
   D225      -1.18037   0.00001  -0.00282   0.00009  -0.00272  -1.18309
   D226      -1.13876  -0.00001  -0.00254  -0.00003  -0.00257  -1.14132
   D227       1.02291  -0.00003  -0.00217  -0.00067  -0.00284   1.02008
   D228       3.09476  -0.00001  -0.00233  -0.00041  -0.00274   3.09202
   D229       1.09337  -0.00001  -0.00030  -0.00163  -0.00193   1.09144
   D230      -0.99843  -0.00002  -0.00020  -0.00184  -0.00204  -1.00046
   D231      -3.10017  -0.00001  -0.00033  -0.00168  -0.00201  -3.10217
   D232      -1.08883   0.00001  -0.00089  -0.00083  -0.00172  -1.09056
   D233       3.10256  -0.00000  -0.00079  -0.00104  -0.00183   3.10073
   D234       1.00082   0.00001  -0.00091  -0.00089  -0.00180   0.99902
   D235       3.13998  -0.00000  -0.00041  -0.00132  -0.00173   3.13825
   D236       1.04819  -0.00002  -0.00031  -0.00153  -0.00184   1.04635
   D237      -1.05355  -0.00001  -0.00044  -0.00137  -0.00181  -1.05536
   D238      -1.04006   0.00001  -0.00255  -0.00187  -0.00441  -1.04447
   D239      -3.12320   0.00001  -0.00242  -0.00192  -0.00434  -3.12754
   D240       1.06210   0.00001  -0.00239  -0.00194  -0.00433   1.05777
   D241       1.12241  -0.00003  -0.00190  -0.00268  -0.00459   1.11783
   D242      -0.96073  -0.00003  -0.00177  -0.00274  -0.00451  -0.96525
   D243      -3.05862  -0.00003  -0.00174  -0.00276  -0.00450  -3.06312
   D244      -3.10774  -0.00001  -0.00242  -0.00213  -0.00455  -3.11229
   D245       1.09230  -0.00001  -0.00229  -0.00219  -0.00448   1.08782
   D246      -1.00558  -0.00001  -0.00226  -0.00221  -0.00447  -1.01005
         Item               Value     Threshold  Converged?
 Maximum Force            0.000510     0.000450     NO 
 RMS     Force            0.000076     0.000300     YES
 Maximum Displacement     0.052553     0.001800     NO 
 RMS     Displacement     0.011909     0.001200     NO 
 Predicted change in Energy=-1.631602D-05
 Lowest energy point so far.  Saving SCF results.
 GradGradGradGradGradGradGradGradGradGradGradGradGradGradGradGradGradGrad

 Leave Link  103 at Mon Jul 28 19:09:27 2025, MaxMem=  1073741824 cpu:               1.1 elap:               0.2
 (Enter /app/gaussian/g16/l202.exe)
 Stoichiometry    C27H44O
 Framework group  C1[X(C27H44O)]
 Deg. of freedom   210
 Full point group                 C1      NOp   1
 RotChk:  IX=0 Diff= 2.25D-02
 Largest Abelian subgroup         C1      NOp   1
 Largest concise Abelian subgroup C1      NOp   1
                         Standard orientation:                         
 ---------------------------------------------------------------------
 Center     Atomic      Atomic             Coordinates (Angstroms)
 Number     Number       Type             X           Y           Z
 ---------------------------------------------------------------------
      1          6           0       -1.089953   -0.481153   -0.642591
      2          6           0       -0.647762    0.894150   -0.079335
      3          6           0        0.248387    0.701060    1.186628
      4          6           0        1.534787   -0.040210    0.932637
      5          6           0        2.366564    0.488329   -0.248460
      6          6           0        3.556358   -0.466094   -0.656090
      7          6           0        3.068459   -1.650415   -1.545361
      8          6           0        4.202008   -1.097717    0.589932
      9          6           0        3.456530   -1.373229    1.681787
     10          6           0        2.070695   -0.928121    1.801683
     11          6           0        5.667567   -1.430337    0.470432
     12          6           0        6.514412   -0.159930    0.237894
     13          8           0        7.662140   -0.609294   -0.575639
     14          6           0        5.702155    0.939631   -0.478160
     15          6           0        4.656825    0.336772   -1.432428
     16          6           0        1.481416    0.883646   -1.471866
     17          6           0        0.195086    1.664655   -1.114583
     18          6           0       -0.738325    0.230679    2.276542
     19          6           0       -2.076532    0.964738    1.924817
     20          6           0       -1.818929    1.707013    0.567782
     21          6           0       -3.048052    2.146358   -0.282959
     22          6           0       -3.956625    1.083742   -0.971547
     23          6           0       -4.830338    0.159925   -0.095976
     24          6           0       -5.861656   -0.620524   -0.936772
     25          6           0       -6.832390   -1.513817   -0.126399
     26          6           0       -7.943010   -2.071746   -1.040338
     27          6           0       -6.106186   -2.664401    0.600957
     28          6           0       -3.905852    3.150125    0.526709
     29          1           0       -0.258195   -1.193702   -0.635607
     30          1           0       -1.898542   -0.922259   -0.052466
     31          1           0       -1.440543   -0.391647   -1.676709
     32          1           0        0.559275    1.727893    1.465897
     33          1           0        2.826438    1.428423    0.120087
     34          1           0        3.871018   -2.388520   -1.654257
     35          1           0        2.795544   -1.313493   -2.551515
     36          1           0        2.205650   -2.151875   -1.094091
     37          1           0        3.900713   -1.895770    2.527193
     38          1           0        1.508635   -1.243012    2.676863
     39          1           0        6.026177   -1.973991    1.350371
     40          1           0        5.848311   -2.077017   -0.401030
     41          1           0        6.897421    0.223235    1.193782
     42          1           0        8.326108    0.102855   -0.672285
     43          1           0        6.387636    1.606494   -1.019179
     44          1           0        5.199698    1.556651    0.280162
     45          1           0        4.189831    1.124138   -2.035425
     46          1           0        5.168917   -0.330756   -2.137773
     47          1           0        1.185973   -0.019818   -2.013625
     48          1           0        2.080269    1.480191   -2.171183
     49          1           0        0.454057    2.651946   -0.700871
     50          1           0       -0.379522    1.844869   -2.034661
     51          1           0       -0.386064    0.474262    3.285274
     52          1           0       -0.867937   -0.858172    2.234525
     53          1           0       -2.897662    0.248215    1.843968
     54          1           0       -2.359552    1.678153    2.707230
     55          1           0       -1.349433    2.668924    0.841001
     56          1           0       -2.616372    2.719165   -1.121943
     57          1           0       -3.353564    0.463332   -1.643807
     58          1           0       -4.635412    1.654308   -1.626410
     59          1           0       -5.365265    0.750034    0.662129
     60          1           0       -4.196898   -0.549464    0.448208
     61          1           0       -6.456432    0.100947   -1.518421
     62          1           0       -5.333720   -1.248560   -1.673179
     63          1           0       -7.311074   -0.877540    0.636951
     64          1           0       -7.515015   -2.712628   -1.823582
     65          1           0       -8.496572   -1.262857   -1.533567
     66          1           0       -8.660656   -2.674466   -0.469821
     67          1           0       -5.587349   -3.310297   -0.121256
     68          1           0       -6.819841   -3.287751    1.154235
     69          1           0       -5.364019   -2.295069    1.317516
     70          1           0       -3.296656    3.993565    0.875291
     71          1           0       -4.717746    3.554655   -0.090770
     72          1           0       -4.358588    2.681983    1.408244
 ---------------------------------------------------------------------
 Rotational constants (GHZ):           0.4095060           0.0649834           0.0628351
 Leave Link  202 at Mon Jul 28 19:09:27 2025, MaxMem=  1073741824 cpu:               0.1 elap:               0.0
 (Enter /app/gaussian/g16/l301.exe)
 Standard basis: 6-31+G (6D, 7F)
 Ernie: Thresh=  0.10000D-02 Tol=  0.10000D-05 Strict=F.
 There are   452 symmetry adapted cartesian basis functions of A   symmetry.
 There are   452 symmetry adapted basis functions of A   symmetry.
   452 basis functions,   904 primitive gaussians,   452 cartesian basis functions
   107 alpha electrons      107 beta electrons
       nuclear repulsion energy      2772.6964821044 Hartrees.
 IExCor=  402 DFT=T Ex+Corr=B3LYP ExCW=0 ScaHFX=  0.200000
 ScaDFX=  0.800000  0.720000  1.000000  0.810000 ScalE2=  1.000000  1.000000
 IRadAn=      5 IRanWt=     -1 IRanGd=            0 ICorTp=0 IEmpDi=  4
 NAtoms=   72 NActive=   72 NUniq=   72 SFac= 1.00D+00 NAtFMM=   60 NAOKFM=T Big=T
 Integral buffers will be    131072 words long.
 Raffenetti 2 integral format.
 Two-electron integral symmetry is turned on.
 Leave Link  301 at Mon Jul 28 19:09:27 2025, MaxMem=  1073741824 cpu:               0.4 elap:               0.1
 (Enter /app/gaussian/g16/l302.exe)
 NPDir=0 NMtPBC=     1 NCelOv=     1 NCel=       1 NClECP=     1 NCelD=      1
         NCelK=      1 NCelE2=     1 NClLst=     1 CellRange=     0.0.
 One-electron integrals computed using PRISM.
 One-electron integral symmetry used in STVInt
 NBasis=   452 RedAO= T EigKep=  1.31D-06  NBF=   452
 NBsUse=   449 1.00D-06 EigRej=  7.63D-07 NBFU=   449
 Precomputing XC quadrature grid using
 IXCGrd= 4 IRadAn=           5 IRanWt=          -1 IRanGd=           0 AccXCQ= 0.00D+00.
 Generated NRdTot=       0 NPtTot=           0 NUsed=           0 NTot=          32
 NSgBfM=   437   437   437   437   437 MxSgAt=    72 MxSgA2=    72.
 Leave Link  302 at Mon Jul 28 19:09:29 2025, MaxMem=  1073741824 cpu:              10.5 elap:               1.3
 (Enter /app/gaussian/g16/l303.exe)
 DipDrv:  MaxL=1.
 Leave Link  303 at Mon Jul 28 19:09:29 2025, MaxMem=  1073741824 cpu:               0.5 elap:               0.1
 (Enter /app/gaussian/g16/l401.exe)
 Initial guess from the checkpoint file:  "/work/scr/Gau-256556.chk"
 B after Tr=     0.000000   -0.000000   -0.000000
         Rot=    0.999969    0.007850   -0.000137   -0.000148 Ang=   0.90 deg.
 Guess basis will be translated and rotated to current coordinates.
 JPrj=2 DoOrth=T DoCkMO=T.
 Generating alternative initial guess.
 ExpMin= 4.38D-02 ExpMax= 5.48D+03 ExpMxC= 8.25D+02 IAcc=3 IRadAn=         5 AccDes= 0.00D+00
 Harris functional with IExCor=  402 and IRadAn=       5 diagonalized for initial guess.
 HarFok:  IExCor=  402 AccDes= 0.00D+00 IRadAn=         5 IDoV= 1 UseB2=F ITyADJ=14
 ICtDFT=  3500011 ScaDFX=  1.000000  1.000000  1.000000  1.000000
 FoFCou: FMM=F IPFlag=           0 FMFlag=      100000 FMFlg1=        2001
         NFxFlg=           0 DoJE=T BraDBF=F KetDBF=T FulRan=T
         wScrn=  0.000000 ICntrl=       500 IOpCl=  0 I1Cent=   200000004 NGrid=           0
         NMat0=    1 NMatS0=      1 NMatT0=    0 NMatD0=    1 NMtDS0=    0 NMtDT0=    0
 Petite list used in FoFCou.
 Harris En= -1130.40106214162    
 Leave Link  401 at Mon Jul 28 19:09:38 2025, MaxMem=  1073741824 cpu:              76.0 elap:               9.5
 (Enter /app/gaussian/g16/l502.exe)
 Integral symmetry usage will be decided dynamically.
 Closed shell SCF:
 Using DIIS extrapolation, IDIIS=  1040.
 NGot=  1073741824 LenX=  1073322182 LenY=  1073117426
 Requested convergence on RMS density matrix=1.00D-08 within 128 cycles.
 Requested convergence on MAX density matrix=1.00D-06.
 Requested convergence on             energy=1.00D-06.
 No special actions if energy rises.
 Fock matrices will be formed incrementally for  20 cycles.

 Cycle   1  Pass 1  IDiag  1:
 FoFJK:  IHMeth= 1 ICntrl=       0 DoSepK=F KAlg= 0 I1Cent=           0 FoldK=F
 IRaf= 990000000 NMat=       1 IRICut=       1 DoRegI=T DoRafI=F ISym2E= 0 IDoP0=0 IntGTp=1.
 FoFCou: FMM=T IPFlag=           0 FMFlag=      100000 FMFlg1=        2001
         NFxFlg=           0 DoJE=F BraDBF=F KetDBF=F FulRan=T
         wScrn=  0.000000 ICntrl=         0 IOpCl=  0 I1Cent=           0 NGrid=           0
         NMat0=    1 NMatS0=      1 NMatT0=    0 NMatD0=    1 NMtDS0=    0 NMtDT0=    0
 Symmetry not used in FoFCou.
 FMM levels:  10  Number of levels for PrismC:   9
 E= -1130.32419940351    
 DIIS: error= 2.00D-03 at cycle   1 NSaved=   1.
 NSaved= 1 IEnMin= 1 EnMin= -1130.32419940351     IErMin= 1 ErrMin= 2.00D-03
 ErrMax= 2.00D-03  0.00D+00 EMaxC= 1.00D-01 BMatC= 1.11D-03 BMatP= 1.11D-03
 IDIUse=3 WtCom= 9.80D-01 WtEn= 2.00D-02
 Coeff-Com:  0.100D+01
 Coeff-En:   0.100D+01
 Coeff:      0.100D+01
 Gap=     0.456 Goal=   None    Shift=    0.000
 GapD=    0.456 DampG=2.000 DampE=1.000 DampFc=2.0000 IDamp=-1.
 RMSDP=9.00D-04 MaxDP=7.43D-02              OVMax= 4.45D-03

 Cycle   2  Pass 1  IDiag  1:
 RMSU=  8.52D-04    CP:  1.00D+00
 E= -1130.32502735062     Delta-E=       -0.000827947119 Rises=F Damp=F
 DIIS: error= 9.27D-05 at cycle   2 NSaved=   2.
 NSaved= 2 IEnMin= 2 EnMin= -1130.32502735062     IErMin= 2 ErrMin= 9.27D-05
 ErrMax= 9.27D-05  0.00D+00 EMaxC= 1.00D-01 BMatC= 5.84D-06 BMatP= 1.11D-03
 IDIUse=1 WtCom= 1.00D+00 WtEn= 0.00D+00
 Coeff-Com: -0.816D-02 0.101D+01
 Coeff:     -0.816D-02 0.101D+01
 Gap=     0.172 Goal=   None    Shift=    0.000
 RMSDP=2.38D-04 MaxDP=1.44D-02 DE=-8.28D-04 OVMax= 1.96D-03

 Cycle   3  Pass 1  IDiag  1:
 RMSU=  2.32D-04    CP:  1.00D+00  1.04D+00
 E= -1130.32502443249     Delta-E=        0.000002918136 Rises=F Damp=F
 DIIS: error= 1.26D-04 at cycle   3 NSaved=   3.
 NSaved= 3 IEnMin= 2 EnMin= -1130.32502735062     IErMin= 2 ErrMin= 9.27D-05
 ErrMax= 1.26D-04  0.00D+00 EMaxC= 1.00D-01 BMatC= 1.06D-05 BMatP= 5.84D-06
 IDIUse=3 WtCom= 4.71D-01 WtEn= 5.29D-01
 Coeff-Com: -0.929D-02 0.589D+00 0.420D+00
 Coeff-En:   0.000D+00 0.578D+00 0.422D+00
 Coeff:     -0.438D-02 0.583D+00 0.421D+00
 Gap=     0.172 Goal=   None    Shift=    0.000
 RMSDP=1.60D-04 MaxDP=1.09D-02 DE= 2.92D-06 OVMax= 1.67D-03

 Cycle   4  Pass 1  IDiag  1:
 RMSU=  7.18D-05    CP:  1.00D+00  1.03D+00  4.05D-01
 E= -1130.32503571290     Delta-E=       -0.000011280416 Rises=F Damp=F
 DIIS: error= 3.75D-05 at cycle   4 NSaved=   4.
 NSaved= 4 IEnMin= 4 EnMin= -1130.32503571290     IErMin= 4 ErrMin= 3.75D-05
 ErrMax= 3.75D-05  0.00D+00 EMaxC= 1.00D-01 BMatC= 5.91D-07 BMatP= 5.84D-06
 IDIUse=1 WtCom= 1.00D+00 WtEn= 0.00D+00
 Coeff-Com: -0.399D-02 0.208D+00 0.227D+00 0.569D+00
 Coeff:     -0.399D-02 0.208D+00 0.227D+00 0.569D+00
 Gap=     0.172 Goal=   None    Shift=    0.000
 RMSDP=2.81D-05 MaxDP=1.69D-03 DE=-1.13D-05 OVMax= 5.10D-04

 Cycle   5  Pass 1  IDiag  1:
 RMSU=  2.15D-05    CP:  1.00D+00  1.03D+00  4.27D-01  7.67D-01
 E= -1130.32503625756     Delta-E=       -0.000000544653 Rises=F Damp=F
 DIIS: error= 1.21D-05 at cycle   5 NSaved=   5.
 NSaved= 5 IEnMin= 5 EnMin= -1130.32503625756     IErMin= 5 ErrMin= 1.21D-05
 ErrMax= 1.21D-05  0.00D+00 EMaxC= 1.00D-01 BMatC= 1.13D-07 BMatP= 5.91D-07
 IDIUse=1 WtCom= 1.00D+00 WtEn= 0.00D+00
 Coeff-Com: -0.362D-03-0.506D-02 0.471D-01 0.345D+00 0.613D+00
 Coeff:     -0.362D-03-0.506D-02 0.471D-01 0.345D+00 0.613D+00
 Gap=     0.172 Goal=   None    Shift=    0.000
 RMSDP=1.30D-05 MaxDP=8.53D-04 DE=-5.45D-07 OVMax= 1.49D-04

 Cycle   6  Pass 1  IDiag  1:
 RMSU=  1.05D-05    CP:  1.00D+00  1.03D+00  4.47D-01  7.69D-01  8.00D-01
 E= -1130.32503637475     Delta-E=       -0.000000117194 Rises=F Damp=F
 DIIS: error= 1.93D-06 at cycle   6 NSaved=   6.
 NSaved= 6 IEnMin= 6 EnMin= -1130.32503637475     IErMin= 6 ErrMin= 1.93D-06
 ErrMax= 1.93D-06  0.00D+00 EMaxC= 1.00D-01 BMatC= 4.69D-09 BMatP= 1.13D-07
 IDIUse=1 WtCom= 1.00D+00 WtEn= 0.00D+00
 Coeff-Com: -0.160D-05-0.121D-01 0.130D-01 0.147D+00 0.305D+00 0.547D+00
 Coeff:     -0.160D-05-0.121D-01 0.130D-01 0.147D+00 0.305D+00 0.547D+00
 Gap=     0.172 Goal=   None    Shift=    0.000
 RMSDP=5.93D-06 MaxDP=4.74D-04 DE=-1.17D-07 OVMax= 3.27D-05

 Cycle   7  Pass 1  IDiag  1:
 RMSU=  2.93D-06    CP:  1.00D+00  1.03D+00  4.44D-01  7.96D-01  8.28D-01
                    CP:  6.76D-01
 E= -1130.32503637931     Delta-E=       -0.000000004556 Rises=F Damp=F
 DIIS: error= 9.86D-07 at cycle   7 NSaved=   7.
 NSaved= 7 IEnMin= 7 EnMin= -1130.32503637931     IErMin= 7 ErrMin= 9.86D-07
 ErrMax= 9.86D-07  0.00D+00 EMaxC= 1.00D-01 BMatC= 7.40D-10 BMatP= 4.69D-09
 IDIUse=1 WtCom= 1.00D+00 WtEn= 0.00D+00
 Coeff-Com:  0.353D-04-0.663D-02 0.271D-02 0.503D-01 0.116D+00 0.325D+00
 Coeff-Com:  0.513D+00
 Coeff:      0.353D-04-0.663D-02 0.271D-02 0.503D-01 0.116D+00 0.325D+00
 Coeff:      0.513D+00
 Gap=     0.172 Goal=   None    Shift=    0.000
 RMSDP=1.30D-06 MaxDP=7.08D-05 DE=-4.56D-09 OVMax= 1.57D-05

 Cycle   8  Pass 1  IDiag  1:
 RMSU=  7.55D-07    CP:  1.00D+00  1.03D+00  4.45D-01  8.02D-01  8.07D-01
                    CP:  6.59D-01  7.68D-01
 E= -1130.32503638006     Delta-E=       -0.000000000752 Rises=F Damp=F
 DIIS: error= 3.82D-07 at cycle   8 NSaved=   8.
 NSaved= 8 IEnMin= 8 EnMin= -1130.32503638006     IErMin= 8 ErrMin= 3.82D-07
 ErrMax= 3.82D-07  0.00D+00 EMaxC= 1.00D-01 BMatC= 7.10D-11 BMatP= 7.40D-10
 IDIUse=1 WtCom= 1.00D+00 WtEn= 0.00D+00
 Coeff-Com:  0.212D-04-0.294D-02 0.538D-03 0.175D-01 0.428D-01 0.146D+00
 Coeff-Com:  0.306D+00 0.491D+00
 Coeff:      0.212D-04-0.294D-02 0.538D-03 0.175D-01 0.428D-01 0.146D+00
 Coeff:      0.306D+00 0.491D+00
 Gap=     0.172 Goal=   None    Shift=    0.000
 RMSDP=4.41D-07 MaxDP=4.88D-05 DE=-7.52D-10 OVMax= 4.24D-06

 Cycle   9  Pass 1  IDiag  1:
 RMSU=  2.83D-07    CP:  1.00D+00  1.03D+00  4.46D-01  8.02D-01  8.10D-01
                    CP:  6.72D-01  7.61D-01  8.39D-01
 E= -1130.32503638031     Delta-E=       -0.000000000251 Rises=F Damp=F
 DIIS: error= 8.85D-08 at cycle   9 NSaved=   9.
 NSaved= 9 IEnMin= 9 EnMin= -1130.32503638031     IErMin= 9 ErrMin= 8.85D-08
 ErrMax= 8.85D-08  0.00D+00 EMaxC= 1.00D-01 BMatC= 4.95D-12 BMatP= 7.10D-11
 IDIUse=1 WtCom= 1.00D+00 WtEn= 0.00D+00
 Coeff-Com:  0.470D-05-0.380D-03-0.153D-03 0.515D-03 0.249D-02 0.202D-01
 Coeff-Com:  0.731D-01 0.241D+00 0.663D+00
 Coeff:      0.470D-05-0.380D-03-0.153D-03 0.515D-03 0.249D-02 0.202D-01
 Coeff:      0.731D-01 0.241D+00 0.663D+00
 Gap=     0.172 Goal=   None    Shift=    0.000
 RMSDP=1.37D-07 MaxDP=7.19D-06 DE=-2.51D-10 OVMax= 8.38D-07

 Cycle  10  Pass 1  IDiag  1:
 RMSU=  8.30D-08    CP:  1.00D+00  1.03D+00  4.46D-01  8.01D-01  8.11D-01
                    CP:  6.75D-01  7.67D-01  8.24D-01  8.19D-01
 E= -1130.32503638007     Delta-E=        0.000000000242 Rises=F Damp=F
 DIIS: error= 2.53D-08 at cycle  10 NSaved=  10.
 NSaved=10 IEnMin= 9 EnMin= -1130.32503638031     IErMin=10 ErrMin= 2.53D-08
 ErrMax= 2.53D-08  0.00D+00 EMaxC= 1.00D-01 BMatC= 3.96D-13 BMatP= 4.95D-12
 IDIUse=1 WtCom= 1.00D+00 WtEn= 0.00D+00
 Coeff-Com:  0.469D-06 0.644D-04-0.111D-03-0.121D-02-0.232D-02-0.279D-02
 Coeff-Com:  0.927D-02 0.700D-01 0.301D+00 0.626D+00
 Coeff:      0.469D-06 0.644D-04-0.111D-03-0.121D-02-0.232D-02-0.279D-02
 Coeff:      0.927D-02 0.700D-01 0.301D+00 0.626D+00
 Gap=     0.172 Goal=   None    Shift=    0.000
 RMSDP=3.33D-08 MaxDP=1.84D-06 DE= 2.42D-10 OVMax= 1.39D-07

 Cycle  11  Pass 1  IDiag  1:
 RMSU=  1.85D-08    CP:  1.00D+00  1.03D+00  4.46D-01  8.01D-01  8.12D-01
                    CP:  6.75D-01  7.73D-01  8.35D-01  8.21D-01  8.33D-01
 E= -1130.32503638014     Delta-E=       -0.000000000069 Rises=F Damp=F
 DIIS: error= 1.32D-08 at cycle  11 NSaved=  11.
 NSaved=11 IEnMin= 9 EnMin= -1130.32503638031     IErMin=11 ErrMin= 1.32D-08
 ErrMax= 1.32D-08  0.00D+00 EMaxC= 1.00D-01 BMatC= 8.13D-14 BMatP= 3.96D-13
 IDIUse=1 WtCom= 1.00D+00 WtEn= 0.00D+00
 Coeff-Com: -0.253D-06 0.791D-04-0.442D-04-0.745D-03-0.157D-02-0.388D-02
 Coeff-Com: -0.277D-02 0.124D-01 0.983D-01 0.366D+00 0.532D+00
 Coeff:     -0.253D-06 0.791D-04-0.442D-04-0.745D-03-0.157D-02-0.388D-02
 Coeff:     -0.277D-02 0.124D-01 0.983D-01 0.366D+00 0.532D+00
 Gap=     0.172 Goal=   None    Shift=    0.000
 RMSDP=1.06D-08 MaxDP=5.55D-07 DE=-6.87D-11 OVMax= 5.14D-08

 Cycle  12  Pass 1  IDiag  1:
 RMSU=  5.91D-09    CP:  1.00D+00  1.03D+00  4.46D-01  8.01D-01  8.12D-01
                    CP:  6.75D-01  7.74D-01  8.39D-01  8.18D-01  7.79D-01
                    CP:  8.93D-01
 E= -1130.32503638015     Delta-E=       -0.000000000018 Rises=F Damp=F
 DIIS: error= 1.96D-09 at cycle  12 NSaved=  12.
 NSaved=12 IEnMin= 9 EnMin= -1130.32503638031     IErMin=12 ErrMin= 1.96D-09
 ErrMax= 1.96D-09  0.00D+00 EMaxC= 1.00D-01 BMatC= 3.09D-15 BMatP= 8.13D-14
 IDIUse=1 WtCom= 1.00D+00 WtEn= 0.00D+00
 Coeff-Com: -0.143D-06 0.301D-04-0.101D-04-0.239D-03-0.507D-03-0.153D-02
 Coeff-Com: -0.189D-02 0.107D-03 0.208D-01 0.110D+00 0.233D+00 0.640D+00
 Coeff:     -0.143D-06 0.301D-04-0.101D-04-0.239D-03-0.507D-03-0.153D-02
 Coeff:     -0.189D-02 0.107D-03 0.208D-01 0.110D+00 0.233D+00 0.640D+00
 Gap=     0.172 Goal=   None    Shift=    0.000
 RMSDP=4.02D-09 MaxDP=2.52D-07 DE=-1.82D-11 OVMax= 1.19D-08

 SCF Done:  E(RB3LYP) =  -1130.32503638     A.U. after   12 cycles
            NFock= 12  Conv=0.40D-08     -V/T= 2.0059
 KE= 1.123703112010D+03 PE=-8.164804807774D+03 EE= 3.138080177279D+03
 Leave Link  502 at Mon Jul 28 19:13:28 2025, MaxMem=  1073741824 cpu:            1829.3 elap:             229.4
 (Enter /app/gaussian/g16/l701.exe)
 ... and contract with generalized density number  0.
 Compute integral first derivatives.
 Leave Link  701 at Mon Jul 28 19:13:28 2025, MaxMem=  1073741824 cpu:               1.9 elap:               0.3
 (Enter /app/gaussian/g16/l702.exe)
 L702 exits ... SP integral derivatives will be done elsewhere.
 Leave Link  702 at Mon Jul 28 19:13:28 2025, MaxMem=  1073741824 cpu:               0.1 elap:               0.0
 (Enter /app/gaussian/g16/l703.exe)
 Integral derivatives from FoFJK, PRISM(SPDF).
 Compute integral first derivatives, UseDBF=F ICtDFT=           0.
 Calling FoFJK, ICntrl=      2127 FMM=T ISym2X=0 I1Cent= 0 IOpClX= 0 NMat=1 NMatS=1 NMatT=0.
 FoFJK:  IHMeth= 1 ICntrl=    2127 DoSepK=F KAlg= 0 I1Cent=           0 FoldK=F
 IRaf=         0 NMat=       1 IRICut=       1 DoRegI=T DoRafI=F ISym2E= 0 IDoP0=0 IntGTp=1.
 FoFCou: FMM=T IPFlag=           0 FMFlag=      100000 FMFlg1=        2001
         NFxFlg=           0 DoJE=F BraDBF=F KetDBF=F FulRan=T
         wScrn=  0.000000 ICntrl=      2127 IOpCl=  0 I1Cent=           0 NGrid=           0
         NMat0=    1 NMatS0=      1 NMatT0=    0 NMatD0=    1 NMtDS0=    0 NMtDT0=    0
 Symmetry not used in FoFCou.
 FMM levels:  10  Number of levels for PrismC:   9
 Leave Link  703 at Mon Jul 28 19:14:18 2025, MaxMem=  1073741824 cpu:             397.7 elap:              49.9
 (Enter /app/gaussian/g16/l716.exe)
 Dipole        =-2.03149062D-01 9.17054667D-01 1.22382091D-01
 ***** Axes restored to original set *****
 -------------------------------------------------------------------
 Center     Atomic                   Forces (Hartrees/Bohr)
 Number     Number              X              Y              Z
 -------------------------------------------------------------------
      1        6          -0.000125367   -0.000036374   -0.000039581
      2        6          -0.000145272    0.000027225   -0.000023237
      3        6           0.000065493   -0.000225707   -0.000009429
      4        6           0.000015356    0.000069580   -0.000144126
      5        6           0.000046659    0.000164396    0.000210089
      6        6          -0.000028584    0.000116361   -0.000137752
      7        6           0.000090140   -0.000026193    0.000114434
      8        6           0.000110815   -0.000043715    0.000141735
      9        6          -0.000166149   -0.000047656   -0.000171125
     10        6           0.000087758   -0.000040085    0.000118555
     11        6          -0.000161117   -0.000098947    0.000015272
     12        6           0.000130186    0.000007475    0.000042840
     13        8           0.000201921   -0.000142741    0.000056936
     14        6          -0.000119246   -0.000086093    0.000072267
     15        6           0.000020049    0.000047247   -0.000062184
     16        6          -0.000026511    0.000043576   -0.000174246
     17        6           0.000017182    0.000083227   -0.000048720
     18        6          -0.000029932    0.000150145   -0.000086169
     19        6           0.000000088   -0.000184718    0.000051369
     20        6           0.000069481    0.000029551   -0.000042863
     21        6           0.000145822    0.000042099    0.000012246
     22        6           0.000060323   -0.000101253   -0.000065410
     23        6          -0.000036688    0.000107969    0.000064700
     24        6           0.000020174   -0.000044270   -0.000061811
     25        6          -0.000052693    0.000067344    0.000065191
     26        6          -0.000046021   -0.000018456   -0.000012138
     27        6           0.000016790   -0.000047579   -0.000026167
     28        6          -0.000031497    0.000002821   -0.000063465
     29        1          -0.000001346    0.000008645    0.000010680
     30        1          -0.000023927    0.000010409   -0.000013889
     31        1          -0.000104677    0.000100212   -0.000023376
     32        1           0.000003218   -0.000029826   -0.000000439
     33        1          -0.000094404   -0.000046498    0.000055333
     34        1          -0.000017355   -0.000003971   -0.000010712
     35        1           0.000078627   -0.000077954    0.000004314
     36        1          -0.000001860    0.000012921   -0.000033134
     37        1          -0.000010514    0.000029861    0.000009758
     38        1           0.000003516    0.000007791   -0.000021775
     39        1           0.000084249    0.000112841   -0.000070717
     40        1           0.000018996    0.000052763   -0.000032614
     41        1          -0.000084645   -0.000016929    0.000035359
     42        1           0.000011169    0.000119427    0.000009524
     43        1          -0.000012777   -0.000030586   -0.000027063
     44        1          -0.000029789    0.000029302   -0.000037661
     45        1           0.000005878   -0.000032922    0.000045091
     46        1          -0.000063096   -0.000015998    0.000012858
     47        1          -0.000023935   -0.000046319   -0.000033767
     48        1          -0.000038628   -0.000030925    0.000021711
     49        1          -0.000014042    0.000004628    0.000028796
     50        1          -0.000011879    0.000005487   -0.000027052
     51        1          -0.000015593    0.000005903    0.000015640
     52        1           0.000007164    0.000009112    0.000045755
     53        1           0.000121444   -0.000016664   -0.000069121
     54        1          -0.000004058    0.000028368   -0.000009912
     55        1          -0.000025341    0.000032409    0.000062705
     56        1           0.000003412    0.000032236    0.000006844
     57        1           0.000148771   -0.000028167    0.000109886
     58        1           0.000035648   -0.000036821    0.000024253
     59        1           0.000008970   -0.000043592   -0.000008070
     60        1          -0.000044001    0.000064113    0.000023578
     61        1           0.000007706   -0.000003312    0.000026968
     62        1          -0.000021717   -0.000011237   -0.000010328
     63        1           0.000019204    0.000000799    0.000012877
     64        1          -0.000017920   -0.000010018   -0.000007616
     65        1           0.000006139   -0.000009672    0.000024810
     66        1          -0.000002485    0.000024645    0.000010551
     67        1          -0.000007552   -0.000011421   -0.000000683
     68        1           0.000026385    0.000016469   -0.000004438
     69        1          -0.000009693    0.000004952    0.000009410
     70        1          -0.000035502    0.000009541    0.000028002
     71        1           0.000009215   -0.000026724   -0.000008222
     72        1          -0.000012138   -0.000008504    0.000018675
 -------------------------------------------------------------------
 Cartesian Forces:  Max     0.000225707 RMS     0.000065890
 Leave Link  716 at Mon Jul 28 19:14:18 2025, MaxMem=  1073741824 cpu:               0.2 elap:               0.0
 (Enter /app/gaussian/g16/l103.exe)

 GradGradGradGradGradGradGradGradGradGradGradGradGradGradGradGradGradGrad
 Berny optimization.
 Using GEDIIS/GDIIS optimizer.
 FormGI is forming the generalized inverse of G from B-inverse, IUseBI=4.
 Internal  Forces:  Max     0.000455374 RMS     0.000064236
 Search for a local minimum.
 Step number   7 out of a maximum of  432
 All quantities printed in internal units (Hartrees-Bohrs-Radians)
 RMS Force = .64236D-04 SwitMx=.10000D-02 MixMth= 2
 Mixed Optimization -- En-DIIS/RFO-DIIS
 Swapping is turned off.
 Update second derivatives using D2CorX and points    2    3    4    5    6
                                                      7
 DE= -3.20D-06 DEPred=-1.63D-05 R= 1.96D-01
 Trust test= 1.96D-01 RLast= 6.22D-02 DXMaxT set to 8.49D-01
 ITU=  0  1  1  0  1  1  0
     Eigenvalues ---    0.00120   0.00235   0.00237   0.00242   0.00246
     Eigenvalues ---    0.00281   0.00299   0.00316   0.00342   0.00359
     Eigenvalues ---    0.00373   0.00439   0.00500   0.00512   0.00575
     Eigenvalues ---    0.00658   0.00926   0.01042   0.01067   0.01268
     Eigenvalues ---    0.01746   0.02015   0.02061   0.02151   0.02357
     Eigenvalues ---    0.02465   0.02567   0.02757   0.02813   0.02992
     Eigenvalues ---    0.03080   0.03223   0.03473   0.03491   0.03588
     Eigenvalues ---    0.03611   0.03749   0.03881   0.04032   0.04245
     Eigenvalues ---    0.04358   0.04428   0.04610   0.04673   0.04692
     Eigenvalues ---    0.04709   0.04741   0.04806   0.04847   0.04873
     Eigenvalues ---    0.04911   0.04914   0.04970   0.05072   0.05176
     Eigenvalues ---    0.05311   0.05351   0.05365   0.05407   0.05412
     Eigenvalues ---    0.05428   0.05433   0.05461   0.05476   0.05549
     Eigenvalues ---    0.05577   0.05586   0.05621   0.05681   0.05813
     Eigenvalues ---    0.05892   0.05945   0.06002   0.06364   0.06745
     Eigenvalues ---    0.06959   0.07148   0.07234   0.07564   0.07724
     Eigenvalues ---    0.08014   0.08078   0.08176   0.08235   0.08431
     Eigenvalues ---    0.08510   0.08722   0.09029   0.09144   0.09424
     Eigenvalues ---    0.09903   0.10205   0.10936   0.11108   0.12066
     Eigenvalues ---    0.12162   0.12490   0.12919   0.12983   0.14335
     Eigenvalues ---    0.14691   0.15381   0.15781   0.15898   0.15937
     Eigenvalues ---    0.15988   0.15995   0.16000   0.16000   0.16000
     Eigenvalues ---    0.16000   0.16000   0.16000   0.16000   0.16000
     Eigenvalues ---    0.16000   0.16002   0.16020   0.16069   0.16407
     Eigenvalues ---    0.16624   0.16789   0.17072   0.18269   0.18823
     Eigenvalues ---    0.19040   0.19444   0.20277   0.20746   0.21771
     Eigenvalues ---    0.21912   0.22351   0.22573   0.22737   0.22938
     Eigenvalues ---    0.24676   0.24791   0.25704   0.25841   0.26190
     Eigenvalues ---    0.26488   0.26837   0.27188   0.27385   0.27781
     Eigenvalues ---    0.27839   0.28021   0.28341   0.28359   0.28499
     Eigenvalues ---    0.28567   0.28612   0.28696   0.28851   0.29023
     Eigenvalues ---    0.29356   0.29373   0.29469   0.30228   0.30935
     Eigenvalues ---    0.31049   0.32762   0.33170   0.33259   0.33561
     Eigenvalues ---    0.33658   0.33730   0.33822   0.33892   0.33937
     Eigenvalues ---    0.33952   0.33960   0.33971   0.34000   0.34022
     Eigenvalues ---    0.34054   0.34075   0.34078   0.34099   0.34105
     Eigenvalues ---    0.34115   0.34146   0.34153   0.34178   0.34188
     Eigenvalues ---    0.34197   0.34205   0.34210   0.34214   0.34218
     Eigenvalues ---    0.34224   0.34233   0.34255   0.34279   0.34335
     Eigenvalues ---    0.34344   0.34400   0.34491   0.34553   0.34791
     Eigenvalues ---    0.34934   0.35179   0.35276   0.35943   0.37690
     Eigenvalues ---    0.38117   0.41547   0.52852   0.53246   0.55053
 En-DIIS/RFO-DIIS/Sim-DIIS IScMMF=       -3 using points:     7    6    5    4    3    2
 RFO step:  Lambda=-1.85475678D-05.
 NNeg= 0 NGDIIS= 6 SimSw=  2.50D-01 Rises=F DC= -3.20D-06 SmlDif=  1.00D-05
 NRisDI= 0 DoIntr=F SqrtH=F CThrHd= 10.0 CDAdj=  3.0
 RMS Error=  0.3325940487D-02 NUsed= 6 OKEnD=F EnDIS=F
 InvSVX:  RCond= 3.23D-04 Info=           0 Equed=N FErr=  2.32D-14 BErr=  5.85D-17
 DidBck=F Rises=F RFO-DIIS coefs:    0.90540    0.16557    0.15881   -0.19671    0.00502
                  RFO-DIIS coefs:   -0.03810
 Iteration  1 RMS(Cart)=  0.00828164 RMS(Int)=  0.00000955
 Iteration  2 RMS(Cart)=  0.00001961 RMS(Int)=  0.00000404
 Iteration  3 RMS(Cart)=  0.00000000 RMS(Int)=  0.00000404
 ITry= 1 IFail=0 DXMaxC= 3.95D-02 DCOld= 1.00D+10 DXMaxT= 8.49D-01 DXLimC= 3.00D+00 Rises=F
 Variable       Old X    -DE/DX   Delta X   Delta X   Delta X     New X
                                 (Linear)    (Quad)   (Total)
    R1        2.93014  -0.00000   0.00004   0.00013   0.00017   2.93031
    R2        2.06974  -0.00000   0.00000   0.00000   0.00001   2.06975
    R3        2.06719  -0.00001   0.00005  -0.00009  -0.00004   2.06715
    R4        2.07037  -0.00011   0.00007  -0.00010  -0.00003   2.07034
    R5        2.95368  -0.00011   0.00028  -0.00044  -0.00016   2.95352
    R6        2.91276  -0.00007  -0.00001  -0.00002  -0.00004   2.91272
    R7        2.95858   0.00034  -0.00033   0.00057   0.00024   2.95882
    R8        2.84642   0.00002  -0.00001  -0.00004  -0.00005   2.84637
    R9        2.91702   0.00006  -0.00007   0.00030   0.00023   2.91725
   R10        2.09498   0.00000  -0.00005   0.00005  -0.00000   2.09498
   R11        2.90686  -0.00002   0.00018  -0.00017   0.00001   2.90687
   R12        2.55695  -0.00002   0.00006  -0.00008  -0.00002   2.55693
   R13        2.98355  -0.00018  -0.00062   0.00031  -0.00031   2.98324
   R14        2.94972  -0.00006  -0.00027   0.00016  -0.00012   2.94960
   R15        2.09673   0.00009  -0.00011   0.00024   0.00013   2.09687
   R16        2.94668  -0.00001   0.00002   0.00006   0.00008   2.94676
   R17        2.90820  -0.00007   0.00046  -0.00057  -0.00011   2.90809
   R18        2.96291   0.00008  -0.00013   0.00026   0.00013   2.96304
   R19        2.07074   0.00002  -0.00007   0.00008   0.00001   2.07075
   R20        2.07039   0.00009  -0.00002   0.00013   0.00011   2.07050
   R21        2.06970   0.00001  -0.00002   0.00005   0.00002   2.06972
   R22        2.55203  -0.00008   0.00016  -0.00025  -0.00008   2.55195
   R23        2.84890  -0.00003   0.00015  -0.00035  -0.00020   2.84870
   R24        2.75993   0.00013  -0.00029   0.00032   0.00004   2.75997
   R25        2.05716   0.00003  -0.00004   0.00008   0.00004   2.05720
   R26        2.05364   0.00001   0.00001   0.00001   0.00002   2.05366
   R27        2.91848   0.00003   0.00016  -0.00012   0.00003   2.91852
   R28        2.06876   0.00010  -0.00016   0.00028   0.00012   2.06887
   R29        2.07896   0.00000  -0.00006   0.00012   0.00005   2.07902
   R30        2.79082  -0.00020   0.00102  -0.00107  -0.00005   2.79076
   R31        2.91626  -0.00009  -0.00019  -0.00003  -0.00022   2.91604
   R32        2.07632   0.00004  -0.00014   0.00020   0.00005   2.07637
   R33        1.84899  -0.00004   0.00010  -0.00015  -0.00005   1.84894
   R34        2.90722   0.00000  -0.00018   0.00021   0.00004   2.90726
   R35        2.07637   0.00002  -0.00010   0.00010   0.00001   2.07638
   R36        2.07718  -0.00004   0.00017  -0.00017  -0.00000   2.07718
   R37        2.07150   0.00005  -0.00006   0.00011   0.00005   2.07155
   R38        2.07469   0.00003  -0.00007   0.00009   0.00003   2.07472
   R39        2.92283  -0.00003   0.00011  -0.00011  -0.00000   2.92283
   R40        2.06753   0.00003   0.00013  -0.00008   0.00005   2.06758
   R41        2.07314   0.00005  -0.00008   0.00013   0.00006   2.07319
   R42        2.08125   0.00003  -0.00005   0.00009   0.00004   2.08129
   R43        2.07801  -0.00000  -0.00001   0.00001  -0.00001   2.07800
   R44        2.95991   0.00008   0.00004   0.00007   0.00011   2.96002
   R45        2.07092   0.00002  -0.00000   0.00006   0.00005   2.07097
   R46        2.07368  -0.00004   0.00001  -0.00005  -0.00004   2.07364
   R47        2.96324  -0.00007  -0.00033   0.00001  -0.00031   2.96293
   R48        2.06508   0.00013   0.00027  -0.00017   0.00009   2.06517
   R49        2.07115  -0.00000  -0.00007   0.00004  -0.00003   2.07113
   R50        2.94429   0.00016  -0.00079   0.00089   0.00009   2.94439
   R51        2.08757   0.00006  -0.00004   0.00016   0.00011   2.08768
   R52        2.94507  -0.00007  -0.00014   0.00008  -0.00006   2.94501
   R53        2.92690  -0.00006  -0.00001  -0.00010  -0.00011   2.92679
   R54        2.08586  -0.00003   0.00005  -0.00009  -0.00004   2.08582
   R55        2.91743  -0.00005   0.00014  -0.00020  -0.00005   2.91738
   R56        2.07054  -0.00017  -0.00002  -0.00007  -0.00009   2.07045
   R57        2.08311   0.00005  -0.00006   0.00012   0.00005   2.08317
   R58        2.91512  -0.00005   0.00018  -0.00029  -0.00011   2.91500
   R59        2.07792  -0.00002  -0.00011   0.00006  -0.00005   2.07788
   R60        2.07062   0.00006   0.00018  -0.00009   0.00008   2.07070
   R61        2.92572  -0.00005   0.00027  -0.00040  -0.00013   2.92559
   R62        2.08093   0.00001  -0.00005   0.00008   0.00003   2.08095
   R63        2.08337   0.00002  -0.00003   0.00005   0.00002   2.08339
   R64        2.91536  -0.00005   0.00012  -0.00019  -0.00007   2.91528
   R65        2.91549  -0.00003   0.00012  -0.00015  -0.00003   2.91545
   R66        2.08444   0.00002  -0.00006   0.00008   0.00002   2.08446
   R67        2.07645   0.00002  -0.00004   0.00007   0.00002   2.07647
   R68        2.07355   0.00002  -0.00004   0.00007   0.00003   2.07358
   R69        2.07335   0.00001  -0.00000   0.00002   0.00002   2.07336
   R70        2.07695   0.00001  -0.00003   0.00002  -0.00000   2.07695
   R71        2.07353   0.00003  -0.00006   0.00009   0.00004   2.07356
   R72        2.07067   0.00001  -0.00007   0.00010   0.00003   2.07070
   R73        2.07355   0.00004  -0.00007   0.00013   0.00006   2.07361
   R74        2.07362   0.00003  -0.00003   0.00005   0.00002   2.07364
   R75        2.07115  -0.00001  -0.00002   0.00002   0.00000   2.07116
    A1        1.93709  -0.00005   0.00015  -0.00024  -0.00009   1.93699
    A2        1.95249   0.00002  -0.00016   0.00031   0.00014   1.95264
    A3        1.94086   0.00006  -0.00016   0.00031   0.00015   1.94100
    A4        1.87084  -0.00001   0.00017  -0.00030  -0.00012   1.87072
    A5        1.87778  -0.00004   0.00008  -0.00027  -0.00019   1.87759
    A6        1.88137   0.00000  -0.00006   0.00016   0.00010   1.88146
    A7        1.92640  -0.00012   0.00005  -0.00042  -0.00037   1.92603
    A8        1.93408  -0.00006   0.00002  -0.00005  -0.00003   1.93405
    A9        1.97940   0.00020  -0.00097   0.00158   0.00061   1.98001
   A10        1.86736   0.00007   0.00010  -0.00003   0.00007   1.86743
   A11        1.72972  -0.00004   0.00048  -0.00087  -0.00040   1.72932
   A12        2.01211  -0.00006   0.00043  -0.00042   0.00000   2.01211
   A13        1.99750  -0.00004  -0.00001  -0.00014  -0.00015   1.99735
   A14        1.81629   0.00004  -0.00017   0.00035   0.00017   1.81646
   A15        1.82388   0.00003   0.00027  -0.00028  -0.00001   1.82387
   A16        2.11182  -0.00001   0.00027  -0.00035  -0.00008   2.11174
   A17        1.83258   0.00000  -0.00016   0.00019   0.00003   1.83261
   A18        1.85838  -0.00001  -0.00019   0.00024   0.00005   1.85843
   A19        2.00665  -0.00007   0.00018  -0.00036  -0.00020   2.00645
   A20        2.15663   0.00011   0.00000   0.00020   0.00018   2.15681
   A21        2.09955  -0.00004   0.00003  -0.00001  -0.00000   2.09955
   A22        1.98015   0.00006   0.00008  -0.00007  -0.00000   1.98015
   A23        1.96295   0.00007   0.00014  -0.00027  -0.00012   1.96283
   A24        1.83403   0.00001  -0.00041   0.00089   0.00047   1.83450
   A25        1.95852  -0.00021  -0.00011  -0.00063  -0.00073   1.95778
   A26        1.86044   0.00003   0.00024   0.00003   0.00026   1.86070
   A27        1.85541   0.00006   0.00005   0.00021   0.00026   1.85567
   A28        1.95043  -0.00010  -0.00059   0.00011  -0.00048   1.94995
   A29        1.93395  -0.00000   0.00043  -0.00037   0.00005   1.93401
   A30        1.92540   0.00001   0.00000  -0.00014  -0.00014   1.92526
   A31        1.85594   0.00007   0.00015   0.00017   0.00032   1.85626
   A32        1.90303   0.00004  -0.00012   0.00030   0.00018   1.90320
   A33        1.89294  -0.00001   0.00015  -0.00005   0.00010   1.89304
   A34        1.91676  -0.00000   0.00025  -0.00019   0.00006   1.91683
   A35        1.94777  -0.00000  -0.00031   0.00028  -0.00003   1.94774
   A36        1.93827   0.00003  -0.00018   0.00030   0.00012   1.93839
   A37        1.87373   0.00002   0.00008  -0.00004   0.00005   1.87378
   A38        1.88548  -0.00002   0.00019  -0.00027  -0.00009   1.88539
   A39        1.89964  -0.00003  -0.00001  -0.00011  -0.00012   1.89952
   A40        2.10220   0.00003  -0.00011   0.00016   0.00003   2.10222
   A41        2.01997   0.00001  -0.00005   0.00010   0.00004   2.02001
   A42        2.16000  -0.00004   0.00026  -0.00033  -0.00008   2.15993
   A43        2.12703  -0.00003   0.00009  -0.00011  -0.00003   2.12700
   A44        2.09505   0.00002  -0.00005   0.00001  -0.00004   2.09501
   A45        2.05976   0.00001   0.00000   0.00004   0.00005   2.05981
   A46        2.12126  -0.00003   0.00010  -0.00011  -0.00001   2.12125
   A47        2.09733   0.00002  -0.00012   0.00016   0.00004   2.09736
   A48        2.05846   0.00001   0.00001   0.00001   0.00002   2.05848
   A49        1.94281  -0.00004   0.00052  -0.00052  -0.00000   1.94281
   A50        1.94368  -0.00005   0.00047  -0.00081  -0.00034   1.94333
   A51        1.93071  -0.00002   0.00008  -0.00009  -0.00003   1.93068
   A52        1.92827   0.00010  -0.00063   0.00095   0.00033   1.92860
   A53        1.84853   0.00005  -0.00059   0.00092   0.00032   1.84884
   A54        1.86605  -0.00004   0.00011  -0.00035  -0.00024   1.86581
   A55        1.83256  -0.00004   0.00081  -0.00132  -0.00051   1.83206
   A56        1.94697   0.00008  -0.00032   0.00068   0.00034   1.94731
   A57        1.92518   0.00001  -0.00033   0.00073   0.00040   1.92558
   A58        1.95007  -0.00006   0.00041  -0.00099  -0.00059   1.94948
   A59        1.89067   0.00002  -0.00018   0.00009  -0.00008   1.89059
   A60        1.91630  -0.00002  -0.00033   0.00073   0.00039   1.91669
   A61        1.93941  -0.00006   0.00044  -0.00084  -0.00041   1.93900
   A62        1.94576  -0.00006   0.00003  -0.00025  -0.00022   1.94554
   A63        1.90979   0.00006  -0.00002   0.00017   0.00014   1.90994
   A64        1.89700  -0.00004   0.00019  -0.00035  -0.00016   1.89684
   A65        1.93511  -0.00000   0.00034  -0.00025   0.00009   1.93520
   A66        1.91484   0.00004  -0.00034   0.00040   0.00005   1.91489
   A67        1.85895   0.00001  -0.00019   0.00030   0.00011   1.85906
   A68        1.95027   0.00003  -0.00038   0.00049   0.00010   1.95038
   A69        1.91895   0.00002  -0.00003  -0.00004  -0.00007   1.91889
   A70        1.91150   0.00001  -0.00016   0.00034   0.00018   1.91168
   A71        1.92752  -0.00005   0.00028  -0.00036  -0.00008   1.92745
   A72        1.89635  -0.00002   0.00027  -0.00039  -0.00012   1.89623
   A73        1.85670   0.00001   0.00004  -0.00006  -0.00003   1.85667
   A74        2.00253  -0.00007   0.00004  -0.00006  -0.00003   2.00250
   A75        1.90932   0.00000  -0.00050   0.00074   0.00024   1.90956
   A76        1.90475   0.00004   0.00008  -0.00024  -0.00015   1.90460
   A77        1.88260   0.00004   0.00024  -0.00011   0.00013   1.88273
   A78        1.90356   0.00001   0.00019  -0.00027  -0.00007   1.90349
   A79        1.85541  -0.00002  -0.00007  -0.00007  -0.00014   1.85527
   A80        1.93638   0.00002  -0.00019   0.00046   0.00027   1.93665
   A81        1.90117  -0.00004  -0.00005   0.00002  -0.00003   1.90114
   A82        1.93709   0.00004   0.00012  -0.00016  -0.00004   1.93706
   A83        1.92184   0.00001   0.00004  -0.00014  -0.00010   1.92174
   A84        1.90081  -0.00004   0.00019  -0.00028  -0.00009   1.90072
   A85        1.86530   0.00001  -0.00011   0.00008  -0.00003   1.86527
   A86        1.81807  -0.00006   0.00040  -0.00046  -0.00008   1.81799
   A87        1.95705   0.00000  -0.00017  -0.00008  -0.00024   1.95681
   A88        1.92926   0.00004  -0.00009   0.00043   0.00034   1.92960
   A89        1.95752  -0.00003  -0.00001  -0.00002  -0.00003   1.95749
   A90        1.93426   0.00007  -0.00009   0.00016   0.00008   1.93434
   A91        1.86896  -0.00002  -0.00004  -0.00002  -0.00006   1.86890
   A92        1.85024   0.00007   0.00012  -0.00022  -0.00012   1.85012
   A93        1.92976   0.00008  -0.00040   0.00032  -0.00008   1.92968
   A94        1.94483  -0.00011   0.00063  -0.00058   0.00005   1.94488
   A95        1.94958  -0.00006  -0.00071   0.00055  -0.00015   1.94943
   A96        1.93060   0.00001   0.00025   0.00008   0.00034   1.93094
   A97        1.86041   0.00001   0.00011  -0.00015  -0.00003   1.86037
   A98        1.80783  -0.00006  -0.00052   0.00052  -0.00002   1.80781
   A99        2.10696   0.00046  -0.00112   0.00182   0.00070   2.10766
   A100       1.80945  -0.00013   0.00108  -0.00165  -0.00057   1.80888
   A101       2.06738  -0.00031  -0.00093   0.00103   0.00008   2.06746
   A102       1.84207   0.00011   0.00123  -0.00144  -0.00021   1.84186
   A103       1.79752  -0.00006   0.00104  -0.00125  -0.00021   1.79731
   A104       2.10471   0.00019  -0.00248   0.00261   0.00013   2.10484
   A105       1.91157  -0.00012   0.00027  -0.00039  -0.00012   1.91144
   A106       1.82641  -0.00001   0.00093  -0.00081   0.00012   1.82654
   A107       1.92834  -0.00010   0.00033  -0.00054  -0.00022   1.92812
   A108       1.81935   0.00002   0.00095  -0.00068   0.00027   1.81962
   A109       1.85212   0.00001   0.00044  -0.00061  -0.00018   1.85194
   A110       2.07986  -0.00034  -0.00084   0.00025  -0.00059   2.07926
   A111       1.91377   0.00014  -0.00061   0.00082   0.00021   1.91398
   A112       1.84269   0.00009   0.00084  -0.00072   0.00012   1.84281
   A113       1.89719   0.00007  -0.00050   0.00066   0.00016   1.89735
   A114       1.87356   0.00012   0.00107  -0.00092   0.00016   1.87372
   A115       1.84160  -0.00006   0.00027  -0.00026   0.00001   1.84161
   A116       1.95194  -0.00005   0.00052  -0.00060  -0.00009   1.95185
   A117       1.92324   0.00001   0.00015  -0.00012   0.00002   1.92326
   A118       1.91974  -0.00000  -0.00060   0.00057  -0.00003   1.91971
   A119       1.89869   0.00001   0.00018  -0.00026  -0.00008   1.89862
   A120       1.90672   0.00004   0.00003   0.00009   0.00012   1.90684
   A121       1.86113  -0.00001  -0.00030   0.00035   0.00005   1.86118
   A122       2.01064  -0.00006   0.00052  -0.00074  -0.00023   2.01042
   A123       1.89392  -0.00000  -0.00023   0.00021  -0.00002   1.89389
   A124       1.90936   0.00002   0.00008  -0.00004   0.00004   1.90940
   A125       1.89214   0.00003  -0.00012   0.00020   0.00008   1.89222
   A126       1.89778   0.00002  -0.00010   0.00017   0.00007   1.89786
   A127       1.85361  -0.00000  -0.00020   0.00028   0.00008   1.85369
   A128       1.92832  -0.00004   0.00030  -0.00049  -0.00020   1.92813
   A129       1.96268   0.00003   0.00020  -0.00021  -0.00002   1.96266
   A130       1.87706   0.00001  -0.00008   0.00025   0.00017   1.87723
   A131       1.92671  -0.00001  -0.00009  -0.00004  -0.00013   1.92658
   A132       1.88197   0.00001  -0.00019   0.00025   0.00007   1.88203
   A133       1.88409  -0.00000  -0.00016   0.00030   0.00013   1.88423
   A134       1.93136  -0.00000  -0.00006   0.00009   0.00004   1.93140
   A135       1.94215  -0.00001   0.00007  -0.00008  -0.00000   1.94214
   A136       1.94067  -0.00003   0.00024  -0.00035  -0.00011   1.94056
   A137       1.88184   0.00001  -0.00007   0.00012   0.00004   1.88188
   A138       1.88076   0.00002  -0.00011   0.00015   0.00004   1.88080
   A139       1.88465   0.00002  -0.00008   0.00008   0.00000   1.88465
   A140       1.92909  -0.00001  -0.00004   0.00000  -0.00004   1.92906
   A141       1.93398  -0.00001  -0.00000  -0.00002  -0.00003   1.93395
   A142       1.95600  -0.00000   0.00015  -0.00011   0.00004   1.95604
   A143       1.88022   0.00001  -0.00006   0.00010   0.00004   1.88027
   A144       1.88394   0.00000   0.00002  -0.00002   0.00000   1.88394
   A145       1.87786   0.00000  -0.00008   0.00006  -0.00002   1.87784
   A146       1.93557  -0.00002  -0.00001  -0.00006  -0.00007   1.93550
   A147       1.93320  -0.00002   0.00014  -0.00018  -0.00004   1.93317
   A148       1.95241   0.00003   0.00003   0.00013   0.00015   1.95256
   A149       1.88197   0.00002  -0.00007   0.00006  -0.00001   1.88195
   A150       1.87774  -0.00001  -0.00006   0.00002  -0.00004   1.87770
   A151       1.88014   0.00001  -0.00004   0.00005   0.00001   1.88015
    D1       -0.74120   0.00002   0.00344  -0.00278   0.00066  -0.74054
    D2        1.32420  -0.00001   0.00361  -0.00311   0.00050   1.32470
    D3       -2.66399   0.00003   0.00336  -0.00234   0.00103  -2.66296
    D4        1.34752  -0.00001   0.00365  -0.00311   0.00053   1.34805
    D5       -2.87026  -0.00003   0.00382  -0.00344   0.00038  -2.86988
    D6       -0.57527   0.00000   0.00357  -0.00267   0.00090  -0.57436
    D7       -2.83094   0.00006   0.00335  -0.00248   0.00086  -2.83008
    D8       -0.76554   0.00003   0.00352  -0.00281   0.00070  -0.76483
    D9        1.52946   0.00007   0.00327  -0.00204   0.00123   1.53069
   D10        1.08521  -0.00010   0.00034  -0.00063  -0.00029   1.08492
   D11       -1.25698  -0.00009   0.00013  -0.00035  -0.00022  -1.25720
   D12        3.07982  -0.00010   0.00031  -0.00064  -0.00033   3.07948
   D13       -1.02059  -0.00000   0.00021  -0.00031  -0.00009  -1.02069
   D14        2.92040   0.00001   0.00001  -0.00003  -0.00002   2.92038
   D15        0.97401  -0.00000   0.00019  -0.00032  -0.00014   0.97387
   D16       -3.11649   0.00006  -0.00050   0.00055   0.00005  -3.11643
   D17        0.82451   0.00007  -0.00070   0.00083   0.00012   0.82463
   D18       -1.12188   0.00006  -0.00053   0.00054   0.00001  -1.12187
   D19       -1.06671   0.00012   0.00011  -0.00022  -0.00012  -1.06682
   D20        3.09820   0.00012   0.00021  -0.00036  -0.00015   3.09806
   D21        1.04917   0.00011   0.00030  -0.00037  -0.00008   1.04909
   D22        1.03420  -0.00001   0.00025  -0.00078  -0.00053   1.03367
   D23       -1.08407  -0.00001   0.00035  -0.00091  -0.00056  -1.08463
   D24       -3.13311  -0.00003   0.00044  -0.00093  -0.00049  -3.13360
   D25        2.93851  -0.00005   0.00109  -0.00205  -0.00097   2.93754
   D26        0.82023  -0.00006   0.00119  -0.00218  -0.00100   0.81924
   D27       -1.22880  -0.00007   0.00128  -0.00220  -0.00093  -1.22973
   D28        1.29181  -0.00010  -0.00098  -0.00034  -0.00131   1.29050
   D29       -1.07373   0.00001   0.00212  -0.00419  -0.00207  -1.07581
   D30       -3.07102  -0.00005   0.00055  -0.00230  -0.00175  -3.07276
   D31       -0.74981  -0.00002  -0.00092   0.00001  -0.00091  -0.75072
   D32       -3.11535   0.00009   0.00217  -0.00384  -0.00167  -3.11702
   D33        1.17055   0.00003   0.00061  -0.00195  -0.00134   1.16921
   D34       -2.73544  -0.00005  -0.00147   0.00071  -0.00076  -2.73620
   D35        1.18220   0.00006   0.00162  -0.00314  -0.00152   1.18068
   D36       -0.81508   0.00000   0.00006  -0.00125  -0.00119  -0.81627
   D37        0.87487   0.00003  -0.00076   0.00168   0.00093   0.87580
   D38       -2.48221   0.00002   0.00004   0.00075   0.00079  -2.48142
   D39        3.07008   0.00004  -0.00076   0.00172   0.00095   3.07103
   D40       -0.28701   0.00003   0.00003   0.00078   0.00081  -0.28620
   D41       -1.11462   0.00002  -0.00098   0.00198   0.00099  -1.11363
   D42        1.81148   0.00001  -0.00019   0.00104   0.00085   1.81234
   D43       -0.57532  -0.00011   0.00217  -0.00162   0.00055  -0.57477
   D44       -2.69600  -0.00003   0.00202  -0.00126   0.00077  -2.69524
   D45        1.50313  -0.00004   0.00225  -0.00148   0.00077   1.50390
   D46       -2.85146  -0.00009   0.00213  -0.00147   0.00066  -2.85080
   D47        1.31105  -0.00001   0.00199  -0.00111   0.00088   1.31193
   D48       -0.77300  -0.00002   0.00221  -0.00133   0.00088  -0.77212
   D49        1.34589  -0.00007   0.00233  -0.00170   0.00063   1.34653
   D50       -0.77479   0.00001   0.00219  -0.00134   0.00085  -0.77394
   D51       -2.85884  -0.00000   0.00241  -0.00156   0.00085  -2.85799
   D52       -2.95125   0.00008   0.00054  -0.00040   0.00014  -2.95111
   D53       -0.70478  -0.00010   0.00058  -0.00158  -0.00100  -0.70577
   D54        1.30625   0.00001   0.00047  -0.00094  -0.00047   1.30578
   D55        0.39819   0.00007  -0.00023   0.00048   0.00024   0.39844
   D56        2.64466  -0.00012  -0.00019  -0.00070  -0.00089   2.64378
   D57       -1.62749  -0.00000  -0.00030  -0.00007  -0.00036  -1.62785
   D58       -2.87456  -0.00005  -0.00090   0.00056  -0.00035  -2.87491
   D59        0.14576   0.00000  -0.00098   0.00108   0.00009   0.14586
   D60        0.04060  -0.00006  -0.00005  -0.00047  -0.00052   0.04009
   D61        3.06093  -0.00001  -0.00013   0.00006  -0.00007   3.06086
   D62        1.40601  -0.00002   0.00086  -0.00076   0.00010   1.40611
   D63       -0.66044  -0.00004   0.00077  -0.00080  -0.00002  -0.66047
   D64       -2.75698  -0.00003   0.00030  -0.00040  -0.00009  -2.75707
   D65       -0.84274   0.00003   0.00069   0.00023   0.00092  -0.84181
   D66       -2.90919   0.00001   0.00060   0.00020   0.00079  -2.90839
   D67        1.27746   0.00001   0.00013   0.00059   0.00072   1.27819
   D68       -2.86712   0.00004   0.00055   0.00030   0.00084  -2.86628
   D69        1.34961   0.00002   0.00045   0.00026   0.00071   1.35032
   D70       -0.74693   0.00003  -0.00002   0.00066   0.00064  -0.74628
   D71        0.75107   0.00005  -0.00012   0.00037   0.00025   0.75132
   D72       -1.36693   0.00004  -0.00008   0.00000  -0.00008  -1.36701
   D73        2.89293   0.00005   0.00023  -0.00020   0.00003   2.89296
   D74        3.00878   0.00001   0.00001  -0.00050  -0.00049   3.00829
   D75        0.89078  -0.00000   0.00005  -0.00087  -0.00082   0.88996
   D76       -1.13254   0.00000   0.00037  -0.00107  -0.00071  -1.13325
   D77       -1.24699  -0.00003   0.00027  -0.00067  -0.00040  -1.24739
   D78        2.91820  -0.00004   0.00031  -0.00104  -0.00074   2.91746
   D79        0.89488  -0.00004   0.00062  -0.00124  -0.00063   0.89425
   D80       -2.95820  -0.00002  -0.00112  -0.00327  -0.00439  -2.96258
   D81        1.24924  -0.00004  -0.00119  -0.00328  -0.00447   1.24476
   D82       -0.87380  -0.00002  -0.00084  -0.00354  -0.00438  -0.87818
   D83       -0.84580  -0.00004  -0.00084  -0.00355  -0.00439  -0.85020
   D84       -2.92155  -0.00005  -0.00091  -0.00357  -0.00448  -2.92603
   D85        1.23859  -0.00004  -0.00056  -0.00383  -0.00439   1.23420
   D86        1.19191   0.00001  -0.00064  -0.00338  -0.00401   1.18790
   D87       -0.88384  -0.00001  -0.00071  -0.00339  -0.00410  -0.88794
   D88       -3.00688   0.00001  -0.00036  -0.00365  -0.00401  -3.01089
   D89        0.56318  -0.00001  -0.00121   0.00130   0.00009   0.56327
   D90       -2.62503  -0.00003   0.00003  -0.00026  -0.00023  -2.62526
   D91       -1.55976   0.00007  -0.00083   0.00128   0.00044  -1.55932
   D92        1.53522   0.00005   0.00041  -0.00029   0.00013   1.53534
   D93        2.67897  -0.00000  -0.00085   0.00087   0.00002   2.67899
   D94       -0.50923  -0.00002   0.00039  -0.00070  -0.00030  -0.50953
   D95        1.55517  -0.00000   0.00050  -0.00007   0.00043   1.55560
   D96       -0.59165   0.00003   0.00042   0.00009   0.00050  -0.59114
   D97       -2.62584   0.00000   0.00048  -0.00001   0.00047  -2.62537
   D98       -2.57991  -0.00010  -0.00033   0.00018  -0.00015  -2.58005
   D99        1.55646  -0.00007  -0.00041   0.00034  -0.00007   1.55639
   D100      -0.47774  -0.00010  -0.00035   0.00024  -0.00011  -0.47784
   D101      -0.56589  -0.00000  -0.00013   0.00051   0.00038  -0.56550
   D102      -2.71271   0.00003  -0.00021   0.00067   0.00046  -2.71225
   D103       1.53628   0.00000  -0.00015   0.00057   0.00042   1.53671
   D104      -0.14679   0.00001   0.00108  -0.00141  -0.00032  -0.14711
   D105       3.05178   0.00001   0.00028  -0.00024   0.00004   3.05181
   D106       3.04532   0.00003  -0.00026   0.00027   0.00002   3.04533
   D107      -0.03931   0.00003  -0.00107   0.00144   0.00038  -0.03893
   D108       1.09108   0.00000  -0.00111   0.00076  -0.00035   1.09073
   D109      -3.03180   0.00007  -0.00120   0.00102  -0.00018  -3.03198
   D110      -0.95916  -0.00002  -0.00071  -0.00000  -0.00072  -0.95988
   D111      -2.09885  -0.00002   0.00017  -0.00085  -0.00067  -2.09953
   D112       0.06145   0.00005   0.00008  -0.00059  -0.00050   0.06095
   D113       2.13409  -0.00004   0.00057  -0.00161  -0.00104   2.13305
   D114      -0.19054   0.00004  -0.00030   0.00089   0.00059  -0.18995
   D115       3.06971  -0.00002  -0.00021   0.00036   0.00015   3.06987
   D116       2.89519   0.00004   0.00049  -0.00025   0.00023   2.89542
   D117      -0.12774  -0.00002   0.00058  -0.00078  -0.00020  -0.12795
   D118      -2.60247   0.00004   0.00084   0.00063   0.00146  -2.60101
   D119      -0.48724  -0.00001   0.00165  -0.00102   0.00062  -0.48661
   D120       1.64737   0.00003   0.00074   0.00089   0.00163   1.64900
   D121       1.51169   0.00006   0.00032   0.00136   0.00167   1.51336
   D122      -2.65626   0.00001   0.00112  -0.00029   0.00083  -2.65543
   D123      -0.52166   0.00005   0.00022   0.00162   0.00184  -0.51982
   D124      -0.50303   0.00002   0.00082   0.00079   0.00161  -0.50142
   D125       1.61220  -0.00003   0.00162  -0.00085   0.00078   1.61298
   D126      -2.53638   0.00002   0.00072   0.00106   0.00179  -2.53460
   D127      -3.00322   0.00008   0.00241   0.00153   0.00394  -2.99928
   D128       1.16676   0.00003   0.00209   0.00208   0.00417   1.17093
   D129      -0.94631   0.00008   0.00236   0.00174   0.00411  -0.94221
   D130      -0.55386   0.00004  -0.00191   0.00152  -0.00040  -0.55426
   D131      -2.70081   0.00004  -0.00234   0.00188  -0.00046  -2.70127
   D132       1.55888   0.00003  -0.00220   0.00162  -0.00058   1.55831
   D133       1.49150   0.00000  -0.00085  -0.00034  -0.00119   1.49031
   D134      -0.65545   0.00001  -0.00128   0.00002  -0.00126  -0.65670
   D135      -2.67893  -0.00001  -0.00114  -0.00023  -0.00137  -2.68031
   D136      -2.69356  -0.00002  -0.00102  -0.00039  -0.00141  -2.69497
   D137       1.44268  -0.00002  -0.00145  -0.00002  -0.00147   1.44120
   D138      -0.58081  -0.00003  -0.00131  -0.00028  -0.00159  -0.58240
   D139       1.14012  -0.00005   0.00116  -0.00140  -0.00024   1.13988
   D140      -3.00113  -0.00004   0.00106  -0.00136  -0.00030  -3.00143
   D141      -0.97088  -0.00007   0.00142  -0.00187  -0.00045  -0.97132
   D142      -3.01065  -0.00002   0.00139  -0.00153  -0.00014  -3.01079
   D143      -0.86871  -0.00001   0.00129  -0.00150  -0.00021  -0.86892
   D144       1.16154  -0.00004   0.00165  -0.00201  -0.00035   1.16119
   D145      -0.96218   0.00001   0.00114  -0.00106   0.00007  -0.96211
   D146       1.17976   0.00002   0.00104  -0.00103   0.00001   1.17977
   D147      -3.07318  -0.00001   0.00140  -0.00154  -0.00014  -3.07331
   D148      -0.95126   0.00005  -0.00028   0.00077   0.00049  -0.95077
   D149       1.15483   0.00003  -0.00044   0.00100   0.00057   1.15539
   D150      -3.08835   0.00002  -0.00044   0.00086   0.00042  -3.08792
   D151       1.18128   0.00004  -0.00072   0.00160   0.00088   1.18216
   D152      -2.99581   0.00002  -0.00088   0.00183   0.00096  -2.99486
   D153      -0.95580   0.00001  -0.00087   0.00169   0.00082  -0.95499
   D154      -3.09377   0.00005  -0.00057   0.00132   0.00076  -3.09301
   D155      -0.98768   0.00002  -0.00073   0.00156   0.00083  -0.98685
   D156       1.05233   0.00002  -0.00073   0.00142   0.00069   1.05302
   D157       0.09450   0.00003  -0.00247   0.00126  -0.00121   0.09329
   D158       2.21047   0.00005  -0.00348   0.00198  -0.00151   2.20897
   D159      -2.00701   0.00004  -0.00319   0.00163  -0.00157  -2.00858
   D160       2.21487  -0.00003  -0.00243   0.00086  -0.00157   2.21330
   D161      -1.95234  -0.00001  -0.00344   0.00158  -0.00186  -1.95420
   D162       0.11336  -0.00002  -0.00315   0.00123  -0.00193   0.11144
   D163      -1.98055  -0.00002  -0.00254   0.00094  -0.00161  -1.98215
   D164       0.13543  -0.00000  -0.00356   0.00165  -0.00190   0.13353
   D165       2.20113  -0.00001  -0.00327   0.00130  -0.00197   2.19917
   D166       0.41667  -0.00003   0.00205  -0.00072   0.00133   0.41800
   D167       2.80380   0.00028  -0.00104   0.00345   0.00240   2.80621
   D168      -1.47945   0.00010   0.00064   0.00139   0.00203  -1.47742
   D169      -1.68649  -0.00014   0.00288  -0.00129   0.00158  -1.68490
   D170       0.70065   0.00017  -0.00022   0.00288   0.00266   0.70330
   D171       2.70058  -0.00001   0.00146   0.00082   0.00228   2.70286
   D172       2.52739  -0.00012   0.00302  -0.00151   0.00150   2.52889
   D173      -1.36866   0.00019  -0.00008   0.00266   0.00258  -1.36608
   D174       0.63127   0.00001   0.00160   0.00060   0.00220   0.63348
   D175       1.06199   0.00015   0.00252   0.00531   0.00783   1.06982
   D176      -2.95460   0.00007   0.00092   0.00657   0.00750  -2.94710
   D177      -0.97542   0.00002   0.00200   0.00530   0.00730  -0.96812
   D178      -1.19381   0.00010   0.00590   0.00104   0.00694  -1.18687
   D179       1.07278   0.00001   0.00430   0.00230   0.00661   1.07939
   D180       3.05196  -0.00003   0.00538   0.00103   0.00641   3.05838
   D181       3.06545   0.00017   0.00411   0.00321   0.00731   3.07276
   D182      -0.95115   0.00009   0.00251   0.00447   0.00698  -0.94416
   D183       1.02803   0.00004   0.00359   0.00319   0.00678   1.03482
   D184       1.18914  -0.00012  -0.00561   0.00311  -0.00249   1.18664
   D185      -1.01173  -0.00007  -0.00359   0.00118  -0.00241  -1.01413
   D186      -2.98798  -0.00011  -0.00405   0.00148  -0.00257  -2.99055
   D187      -1.07009  -0.00002  -0.00395   0.00176  -0.00220  -1.07229
   D188       3.01223   0.00002  -0.00194  -0.00017  -0.00211   3.01012
   D189       1.03598  -0.00002  -0.00240   0.00012  -0.00228   1.03370
   D190      -3.05304  -0.00000  -0.00509   0.00305  -0.00204  -3.05508
   D191       1.02929   0.00004  -0.00307   0.00112  -0.00196   1.02733
   D192      -0.94697   0.00000  -0.00354   0.00142  -0.00212  -0.94909
   D193       0.94755  -0.00005   0.00306  -0.00282   0.00024   0.94778
   D194       3.03651  -0.00005   0.00306  -0.00291   0.00015   3.03666
   D195      -1.14885  -0.00004   0.00312  -0.00289   0.00024  -1.14861
   D196      -2.97693   0.00003   0.00016  -0.00004   0.00012  -2.97681
   D197      -0.88796   0.00003   0.00016  -0.00013   0.00003  -0.88794
   D198       1.20986   0.00004   0.00022  -0.00010   0.00012   1.20998
   D199      -1.01491   0.00001   0.00164  -0.00140   0.00024  -1.01467
   D200       1.07405   0.00001   0.00164  -0.00149   0.00015   1.07421
   D201      -3.11130   0.00002   0.00171  -0.00146   0.00024  -3.11106
   D202       2.94078  -0.00001   0.00047  -0.00203  -0.00155   2.93923
   D203       0.82656   0.00001  -0.00020  -0.00121  -0.00141   0.82515
   D204      -1.22042   0.00001   0.00045  -0.00192  -0.00147  -1.22189
   D205      -1.13370  -0.00001  -0.00157  -0.00003  -0.00160  -1.13531
   D206       3.03527   0.00001  -0.00225   0.00078  -0.00147   3.03380
   D207       0.98828   0.00001  -0.00160   0.00008  -0.00152   0.98676
   D208       0.85037   0.00001  -0.00096  -0.00048  -0.00144   0.84893
   D209      -1.26385   0.00003  -0.00164   0.00034  -0.00130  -1.26515
   D210       2.97235   0.00003  -0.00099  -0.00037  -0.00136   2.97099
   D211      -3.08538  -0.00000  -0.00131  -0.00107  -0.00238  -3.08776
   D212      -0.96105  -0.00001  -0.00128  -0.00116  -0.00244  -0.96349
   D213       1.05414  -0.00000  -0.00161  -0.00073  -0.00234   1.05180
   D214      -0.95701  -0.00002  -0.00067  -0.00179  -0.00246  -0.95947
   D215       1.16732  -0.00002  -0.00064  -0.00188  -0.00252   1.16480
   D216      -3.10068  -0.00002  -0.00097  -0.00145  -0.00242  -3.10310
   D217       1.06833   0.00000  -0.00091  -0.00146  -0.00237   1.06596
   D218      -3.09052  -0.00000  -0.00089  -0.00155  -0.00244  -3.09295
   D219      -1.07533   0.00000  -0.00121  -0.00112  -0.00234  -1.07767
   D220       2.99203  -0.00001  -0.00237   0.00098  -0.00139   2.99065
   D221      -1.12975  -0.00003  -0.00213   0.00041  -0.00172  -1.13147
   D222       0.94220  -0.00000  -0.00226   0.00081  -0.00146   0.94074
   D223       0.86674   0.00001  -0.00234   0.00107  -0.00127   0.86548
   D224       3.02814  -0.00001  -0.00209   0.00049  -0.00160   3.02655
   D225      -1.18309   0.00002  -0.00223   0.00089  -0.00133  -1.18443
   D226      -1.14132  -0.00001  -0.00198   0.00054  -0.00144  -1.14277
   D227       1.02008  -0.00003  -0.00174  -0.00004  -0.00177   1.01830
   D228       3.09202  -0.00000  -0.00187   0.00036  -0.00151   3.09052
   D229       1.09144  -0.00000  -0.00022  -0.00077  -0.00099   1.09045
   D230      -1.00046  -0.00000  -0.00014  -0.00093  -0.00107  -1.00153
   D231      -3.10217   0.00000  -0.00025  -0.00074  -0.00099  -3.10316
   D232      -1.09056  -0.00000  -0.00062  -0.00012  -0.00074  -1.09129
   D233       3.10073  -0.00001  -0.00054  -0.00027  -0.00081   3.09991
   D234       0.99902  -0.00000  -0.00065  -0.00009  -0.00073   0.99828
   D235       3.13825  -0.00001  -0.00027  -0.00060  -0.00086   3.13739
   D236       1.04635  -0.00001  -0.00018  -0.00076  -0.00094   1.04541
   D237      -1.05536  -0.00000  -0.00029  -0.00057  -0.00086  -1.05622
   D238      -1.04447   0.00003  -0.00216   0.00118  -0.00097  -1.04545
   D239      -3.12754   0.00002  -0.00206   0.00107  -0.00099  -3.12853
   D240       1.05777   0.00002  -0.00206   0.00109  -0.00097   1.05680
   D241       1.11783  -0.00001  -0.00170   0.00035  -0.00134   1.11648
   D242      -0.96525  -0.00002  -0.00160   0.00024  -0.00136  -0.96660
   D243      -3.06312  -0.00002  -0.00160   0.00026  -0.00134  -3.06446
   D244      -3.11229  -0.00000  -0.00207   0.00081  -0.00126  -3.11355
   D245       1.08782  -0.00001  -0.00197   0.00070  -0.00127   1.08655
   D246      -1.01005  -0.00001  -0.00197   0.00071  -0.00126  -1.01131
         Item               Value     Threshold  Converged?
 Maximum Force            0.000455     0.000450     NO 
 RMS     Force            0.000064     0.000300     YES
 Maximum Displacement     0.039501     0.001800     NO 
 RMS     Displacement     0.008281     0.001200     NO 
 Predicted change in Energy=-7.495107D-06
 Lowest energy point so far.  Saving SCF results.
 GradGradGradGradGradGradGradGradGradGradGradGradGradGradGradGradGradGrad

 Leave Link  103 at Mon Jul 28 19:14:18 2025, MaxMem=  1073741824 cpu:               1.1 elap:               0.2
 (Enter /app/gaussian/g16/l202.exe)
 Stoichiometry    C27H44O
 Framework group  C1[X(C27H44O)]
 Deg. of freedom   210
 Full point group                 C1      NOp   1
 RotChk:  IX=0 Diff= 1.56D-02
 Largest Abelian subgroup         C1      NOp   1
 Largest concise Abelian subgroup C1      NOp   1
                         Standard orientation:                         
 ---------------------------------------------------------------------
 Center     Atomic      Atomic             Coordinates (Angstroms)
 Number     Number       Type             X           Y           Z
 ---------------------------------------------------------------------
      1          6           0       -1.084835   -0.478821   -0.655505
      2          6           0       -0.645819    0.890251   -0.074619
      3          6           0        0.248075    0.682528    1.190517
      4          6           0        1.535684   -0.054190    0.929657
      5          6           0        2.369403    0.490832   -0.242552
      6          6           0        3.560787   -0.456895   -0.660391
      7          6           0        3.075117   -1.629350   -1.566522
      8          6           0        4.204506   -1.104524    0.578318
      9          6           0        3.457134   -1.395391    1.664829
     10          6           0        2.070716   -0.952936    1.788022
     11          6           0        5.670432   -1.434468    0.457281
     12          6           0        6.516747   -0.160517    0.242781
     13          8           0        7.664968   -0.598738   -0.576067
     14          6           0        5.705205    0.948160   -0.459644
     15          6           0        4.661973    0.357448   -1.423786
     16          6           0        1.486423    0.900092   -1.462857
     17          6           0        0.198023    1.674468   -1.098672
     18          6           0       -0.740063    0.197536    2.272881
     19          6           0       -2.078741    0.933760    1.927275
     20          6           0       -1.818873    1.693930    0.580812
     21          6           0       -3.046526    2.145102   -0.265943
     22          6           0       -3.959885    1.091917   -0.962570
     23          6           0       -4.834356    0.163065   -0.093152
     24          6           0       -5.871625   -0.604779   -0.938112
     25          6           0       -6.840970   -1.504536   -0.133377
     26          6           0       -7.958417   -2.047236   -1.048099
     27          6           0       -6.114867   -2.666689    0.575413
     28          6           0       -3.899924    3.145588    0.552281
     29          1           0       -0.252113   -1.190281   -0.654931
     30          1           0       -1.894236   -0.928179   -0.072809
     31          1           0       -1.432766   -0.377533   -1.689417
     32          1           0        0.557347    1.706167    1.482988
     33          1           0        2.827402    1.426797    0.138826
     34          1           0        3.879686   -2.363365   -1.687588
     35          1           0        2.799614   -1.278253   -2.567173
     36          1           0        2.214467   -2.140160   -1.121632
     37          1           0        3.900197   -1.928778    2.504055
     38          1           0        1.507190   -1.279969    2.657803
     39          1           0        6.027450   -1.989362    1.330906
     40          1           0        5.853208   -2.070013   -0.421950
     41          1           0        6.899271    0.209929    1.203896
     42          1           0        8.330315    0.113752   -0.659545
     43          1           0        6.391152    1.622801   -0.990338
     44          1           0        5.200998    1.554336    0.306224
     45          1           0        4.195293    1.152635   -2.016729
     46          1           0        5.175964   -0.299807   -2.137371
     47          1           0        1.193828    0.003209   -2.017006
     48          1           0        2.085964    1.506554   -2.153040
     49          1           0        0.454553    2.657110   -0.672497
     50          1           0       -0.374952    1.864919   -2.017702
     51          1           0       -0.390006    0.429862    3.285060
     52          1           0       -0.867945   -0.890926    2.217994
     53          1           0       -2.898289    0.216767    1.834722
     54          1           0       -2.365272    1.636174    2.718297
     55          1           0       -1.349817    2.652098    0.867831
     56          1           0       -2.612962    2.723196   -1.100288
     57          1           0       -3.360399    0.475825   -1.641883
     58          1           0       -4.638356    1.670676   -1.610583
     59          1           0       -5.364391    0.747809    0.672473
     60          1           0       -4.201911   -0.554180    0.441901
     61          1           0       -6.467049    0.125009   -1.508644
     62          1           0       -5.348832   -1.225790   -1.684101
     63          1           0       -7.313245   -0.876164    0.640456
     64          1           0       -7.536840   -2.679075   -1.842115
     65          1           0       -8.512436   -1.230352   -1.527480
     66          1           0       -8.674524   -2.655265   -0.481277
     67          1           0       -5.603381   -3.305945   -0.157863
     68          1           0       -6.827546   -3.293719    1.125821
     69          1           0       -5.366560   -2.309032    1.291533
     70          1           0       -3.287167    3.983787    0.907300
     71          1           0       -4.710507    3.558317   -0.061501
     72          1           0       -4.354079    2.672243    1.430302
 ---------------------------------------------------------------------
 Rotational constants (GHZ):           0.4109569           0.0648910           0.0627524
 Leave Link  202 at Mon Jul 28 19:14:18 2025, MaxMem=  1073741824 cpu:               0.1 elap:               0.0
 (Enter /app/gaussian/g16/l301.exe)
 Standard basis: 6-31+G (6D, 7F)
 Ernie: Thresh=  0.10000D-02 Tol=  0.10000D-05 Strict=F.
 There are   452 symmetry adapted cartesian basis functions of A   symmetry.
 There are   452 symmetry adapted basis functions of A   symmetry.
   452 basis functions,   904 primitive gaussians,   452 cartesian basis functions
   107 alpha electrons      107 beta electrons
       nuclear repulsion energy      2772.3983555197 Hartrees.
 IExCor=  402 DFT=T Ex+Corr=B3LYP ExCW=0 ScaHFX=  0.200000
 ScaDFX=  0.800000  0.720000  1.000000  0.810000 ScalE2=  1.000000  1.000000
 IRadAn=      5 IRanWt=     -1 IRanGd=            0 ICorTp=0 IEmpDi=  4
 NAtoms=   72 NActive=   72 NUniq=   72 SFac= 1.00D+00 NAtFMM=   60 NAOKFM=T Big=T
 Integral buffers will be    131072 words long.
 Raffenetti 2 integral format.
 Two-electron integral symmetry is turned on.
 Leave Link  301 at Mon Jul 28 19:14:18 2025, MaxMem=  1073741824 cpu:               0.4 elap:               0.1
 (Enter /app/gaussian/g16/l302.exe)
 NPDir=0 NMtPBC=     1 NCelOv=     1 NCel=       1 NClECP=     1 NCelD=      1
         NCelK=      1 NCelE2=     1 NClLst=     1 CellRange=     0.0.
 One-electron integrals computed using PRISM.
 One-electron integral symmetry used in STVInt
 NBasis=   452 RedAO= T EigKep=  1.31D-06  NBF=   452
 NBsUse=   449 1.00D-06 EigRej=  7.63D-07 NBFU=   449
 Precomputing XC quadrature grid using
 IXCGrd= 4 IRadAn=           5 IRanWt=          -1 IRanGd=           0 AccXCQ= 0.00D+00.
 Generated NRdTot=       0 NPtTot=           0 NUsed=           0 NTot=          32
 NSgBfM=   438   438   438   438   438 MxSgAt=    72 MxSgA2=    72.
 Leave Link  302 at Mon Jul 28 19:14:20 2025, MaxMem=  1073741824 cpu:              10.5 elap:               1.3
 (Enter /app/gaussian/g16/l303.exe)
 DipDrv:  MaxL=1.
 Leave Link  303 at Mon Jul 28 19:14:20 2025, MaxMem=  1073741824 cpu:               0.5 elap:               0.1
 (Enter /app/gaussian/g16/l401.exe)
 Initial guess from the checkpoint file:  "/work/scr/Gau-256556.chk"
 B after Tr=     0.000000    0.000000    0.000000
         Rot=    0.999985   -0.005407    0.000027    0.000159 Ang=  -0.62 deg.
 Guess basis will be translated and rotated to current coordinates.
 JPrj=2 DoOrth=T DoCkMO=T.
 Generating alternative initial guess.
 ExpMin= 4.38D-02 ExpMax= 5.48D+03 ExpMxC= 8.25D+02 IAcc=3 IRadAn=         5 AccDes= 0.00D+00
 Harris functional with IExCor=  402 and IRadAn=       5 diagonalized for initial guess.
 HarFok:  IExCor=  402 AccDes= 0.00D+00 IRadAn=         5 IDoV= 1 UseB2=F ITyADJ=14
 ICtDFT=  3500011 ScaDFX=  1.000000  1.000000  1.000000  1.000000
 FoFCou: FMM=F IPFlag=           0 FMFlag=      100000 FMFlg1=        2001
         NFxFlg=           0 DoJE=T BraDBF=F KetDBF=T FulRan=T
         wScrn=  0.000000 ICntrl=       500 IOpCl=  0 I1Cent=   200000004 NGrid=           0
         NMat0=    1 NMatS0=      1 NMatT0=    0 NMatD0=    1 NMtDS0=    0 NMtDT0=    0
 Petite list used in FoFCou.
 Harris En= -1130.40107608847    
 Leave Link  401 at Mon Jul 28 19:14:29 2025, MaxMem=  1073741824 cpu:              76.2 elap:               9.6
 (Enter /app/gaussian/g16/l502.exe)
 Integral symmetry usage will be decided dynamically.
 Closed shell SCF:
 Using DIIS extrapolation, IDIIS=  1040.
 NGot=  1073741824 LenX=  1073322182 LenY=  1073117426
 Requested convergence on RMS density matrix=1.00D-08 within 128 cycles.
 Requested convergence on MAX density matrix=1.00D-06.
 Requested convergence on             energy=1.00D-06.
 No special actions if energy rises.
 Fock matrices will be formed incrementally for  20 cycles.

 Cycle   1  Pass 1  IDiag  1:
 FoFJK:  IHMeth= 1 ICntrl=       0 DoSepK=F KAlg= 0 I1Cent=           0 FoldK=F
 IRaf= 990000000 NMat=       1 IRICut=       1 DoRegI=T DoRafI=F ISym2E= 0 IDoP0=0 IntGTp=1.
 FoFCou: FMM=T IPFlag=           0 FMFlag=      100000 FMFlg1=        2001
         NFxFlg=           0 DoJE=F BraDBF=F KetDBF=F FulRan=T
         wScrn=  0.000000 ICntrl=         0 IOpCl=  0 I1Cent=           0 NGrid=           0
         NMat0=    1 NMatS0=      1 NMatT0=    0 NMatD0=    1 NMtDS0=    0 NMtDT0=    0
 Symmetry not used in FoFCou.
 FMM levels:  10  Number of levels for PrismC:   9
 E= -1130.32471345832    
 DIIS: error= 1.17D-03 at cycle   1 NSaved=   1.
 NSaved= 1 IEnMin= 1 EnMin= -1130.32471345832     IErMin= 1 ErrMin= 1.17D-03
 ErrMax= 1.17D-03  0.00D+00 EMaxC= 1.00D-01 BMatC= 4.40D-04 BMatP= 4.40D-04
 IDIUse=3 WtCom= 9.88D-01 WtEn= 1.17D-02
 Coeff-Com:  0.100D+01
 Coeff-En:   0.100D+01
 Coeff:      0.100D+01
 Gap=     0.456 Goal=   None    Shift=    0.000
 GapD=    0.456 DampG=2.000 DampE=1.000 DampFc=2.0000 IDamp=-1.
 RMSDP=6.03D-04 MaxDP=9.00D-02              OVMax= 2.70D-03

 Cycle   2  Pass 1  IDiag  1:
 RMSU=  5.20D-04    CP:  9.97D-01
 E= -1130.32504297000     Delta-E=       -0.000329511684 Rises=F Damp=F
 DIIS: error= 5.05D-05 at cycle   2 NSaved=   2.
 NSaved= 2 IEnMin= 2 EnMin= -1130.32504297000     IErMin= 2 ErrMin= 5.05D-05
 ErrMax= 5.05D-05  0.00D+00 EMaxC= 1.00D-01 BMatC= 1.93D-06 BMatP= 4.40D-04
 IDIUse=1 WtCom= 1.00D+00 WtEn= 0.00D+00
 Coeff-Com: -0.966D-02 0.101D+01
 Coeff:     -0.966D-02 0.101D+01
 Gap=     0.172 Goal=   None    Shift=    0.000
 RMSDP=1.58D-04 MaxDP=8.52D-03 DE=-3.30D-04 OVMax= 1.01D-03

 Cycle   3  Pass 1  IDiag  1:
 RMSU=  1.54D-04    CP:  9.97D-01  1.05D+00
 E= -1130.32504244210     Delta-E=        0.000000527906 Rises=F Damp=F
 DIIS: error= 6.78D-05 at cycle   3 NSaved=   3.
 NSaved= 3 IEnMin= 2 EnMin= -1130.32504297000     IErMin= 2 ErrMin= 5.05D-05
 ErrMax= 6.78D-05  0.00D+00 EMaxC= 1.00D-01 BMatC= 3.26D-06 BMatP= 1.93D-06
 IDIUse=1 WtCom= 1.00D+00 WtEn= 0.00D+00
 Coeff-Com: -0.920D-02 0.582D+00 0.427D+00
 Coeff:     -0.920D-02 0.582D+00 0.427D+00
 Gap=     0.172 Goal=   None    Shift=    0.000
 RMSDP=9.13D-05 MaxDP=5.75D-03 DE= 5.28D-07 OVMax= 8.73D-04

 Cycle   4  Pass 1  IDiag  1:
 RMSU=  4.24D-05    CP:  9.97D-01  1.05D+00  4.79D-01
 E= -1130.32504587402     Delta-E=       -0.000003431922 Rises=F Damp=F
 DIIS: error= 2.15D-05 at cycle   4 NSaved=   4.
 NSaved= 4 IEnMin= 4 EnMin= -1130.32504587402     IErMin= 4 ErrMin= 2.15D-05
 ErrMax= 2.15D-05  0.00D+00 EMaxC= 1.00D-01 BMatC= 1.90D-07 BMatP= 1.93D-06
 IDIUse=1 WtCom= 1.00D+00 WtEn= 0.00D+00
 Coeff-Com: -0.357D-02 0.186D+00 0.224D+00 0.594D+00
 Coeff:     -0.357D-02 0.186D+00 0.224D+00 0.594D+00
 Gap=     0.172 Goal=   None    Shift=    0.000
 RMSDP=1.77D-05 MaxDP=1.18D-03 DE=-3.43D-06 OVMax= 2.89D-04

 Cycle   5  Pass 1  IDiag  1:
 RMSU=  1.16D-05    CP:  9.97D-01  1.05D+00  4.77D-01  7.04D-01
 E= -1130.32504604032     Delta-E=       -0.000000166301 Rises=F Damp=F
 DIIS: error= 7.95D-06 at cycle   5 NSaved=   5.
 NSaved= 5 IEnMin= 5 EnMin= -1130.32504604032     IErMin= 5 ErrMin= 7.95D-06
 ErrMax= 7.95D-06  0.00D+00 EMaxC= 1.00D-01 BMatC= 4.40D-08 BMatP= 1.90D-07
 IDIUse=1 WtCom= 1.00D+00 WtEn= 0.00D+00
 Coeff-Com: -0.350D-03-0.362D-02 0.535D-01 0.369D+00 0.582D+00
 Coeff:     -0.350D-03-0.362D-02 0.535D-01 0.369D+00 0.582D+00
 Gap=     0.172 Goal=   None    Shift=    0.000
 RMSDP=8.19D-06 MaxDP=5.65D-04 DE=-1.66D-07 OVMax= 9.18D-05

 Cycle   6  Pass 1  IDiag  1:
 RMSU=  5.43D-06    CP:  9.97D-01  1.05D+00  5.03D-01  7.14D-01  7.57D-01
 E= -1130.32504608631     Delta-E=       -0.000000045995 Rises=F Damp=F
 DIIS: error= 1.03D-06 at cycle   6 NSaved=   6.
 NSaved= 6 IEnMin= 6 EnMin= -1130.32504608631     IErMin= 6 ErrMin= 1.03D-06
 ErrMax= 1.03D-06  0.00D+00 EMaxC= 1.00D-01 BMatC= 1.59D-09 BMatP= 4.40D-08
 IDIUse=1 WtCom= 1.00D+00 WtEn= 0.00D+00
 Coeff-Com:  0.104D-04-0.115D-01 0.148D-01 0.151D+00 0.282D+00 0.564D+00
 Coeff:      0.104D-04-0.115D-01 0.148D-01 0.151D+00 0.282D+00 0.564D+00
 Gap=     0.172 Goal=   None    Shift=    0.000
 RMSDP=3.50D-06 MaxDP=3.43D-04 DE=-4.60D-08 OVMax= 1.97D-05

 Cycle   7  Pass 1  IDiag  1:
 RMSU=  1.62D-06    CP:  9.97D-01  1.05D+00  5.01D-01  7.43D-01  7.92D-01
                    CP:  6.56D-01
 E= -1130.32504608770     Delta-E=       -0.000000001381 Rises=F Damp=F
 DIIS: error= 5.94D-07 at cycle   7 NSaved=   7.
 NSaved= 7 IEnMin= 7 EnMin= -1130.32504608770     IErMin= 7 ErrMin= 5.94D-07
 ErrMax= 5.94D-07  0.00D+00 EMaxC= 1.00D-01 BMatC= 2.38D-10 BMatP= 1.59D-09
 IDIUse=1 WtCom= 1.00D+00 WtEn= 0.00D+00
 Coeff-Com:  0.339D-04-0.631D-02 0.395D-02 0.559D-01 0.113D+00 0.331D+00
 Coeff-Com:  0.503D+00
 Coeff:      0.339D-04-0.631D-02 0.395D-02 0.559D-01 0.113D+00 0.331D+00
 Coeff:      0.503D+00
 Gap=     0.172 Goal=   None    Shift=    0.000
 RMSDP=8.04D-07 MaxDP=4.74D-05 DE=-1.38D-09 OVMax= 9.65D-06

 Cycle   8  Pass 1  IDiag  1:
 RMSU=  4.07D-07    CP:  9.97D-01  1.05D+00  5.03D-01  7.49D-01  7.67D-01
                    CP:  6.51D-01  7.18D-01
 E= -1130.32504608804     Delta-E=       -0.000000000346 Rises=F Damp=F
 DIIS: error= 2.28D-07 at cycle   8 NSaved=   8.
 NSaved= 8 IEnMin= 8 EnMin= -1130.32504608804     IErMin= 8 ErrMin= 2.28D-07
 ErrMax= 2.28D-07  0.00D+00 EMaxC= 1.00D-01 BMatC= 2.43D-11 BMatP= 2.38D-10
 IDIUse=1 WtCom= 1.00D+00 WtEn= 0.00D+00
 Coeff-Com:  0.189D-04-0.261D-02 0.904D-03 0.182D-01 0.386D-01 0.138D+00
 Coeff-Com:  0.299D+00 0.507D+00
 Coeff:      0.189D-04-0.261D-02 0.904D-03 0.182D-01 0.386D-01 0.138D+00
 Coeff:      0.299D+00 0.507D+00
 Gap=     0.172 Goal=   None    Shift=    0.000
 RMSDP=2.58D-07 MaxDP=3.08D-05 DE=-3.46D-10 OVMax= 2.66D-06

 Cycle   9  Pass 1  IDiag  1:
 RMSU=  1.57D-07    CP:  9.97D-01  1.05D+00  5.04D-01  7.49D-01  7.71D-01
                    CP:  6.68D-01  7.23D-01  7.89D-01
 E= -1130.32504608797     Delta-E=        0.000000000069 Rises=F Damp=F
 DIIS: error= 5.61D-08 at cycle   9 NSaved=   9.
 NSaved= 9 IEnMin= 8 EnMin= -1130.32504608804     IErMin= 9 ErrMin= 5.61D-08
 ErrMax= 5.61D-08  0.00D+00 EMaxC= 1.00D-01 BMatC= 2.13D-12 BMatP= 2.43D-11
 IDIUse=1 WtCom= 1.00D+00 WtEn= 0.00D+00
 Coeff-Com:  0.442D-05-0.345D-03-0.149D-03 0.440D-03 0.192D-02 0.194D-01
 Coeff-Com:  0.805D-01 0.267D+00 0.631D+00
 Coeff:      0.442D-05-0.345D-03-0.149D-03 0.440D-03 0.192D-02 0.194D-01
 Coeff:      0.805D-01 0.267D+00 0.631D+00
 Gap=     0.172 Goal=   None    Shift=    0.000
 RMSDP=1.02D-07 MaxDP=6.03D-06 DE= 6.91D-11 OVMax= 4.89D-07

 Cycle  10  Pass 1  IDiag  1:
 RMSU=  5.10D-08    CP:  9.97D-01  1.05D+00  5.03D-01  7.48D-01  7.73D-01
                    CP:  6.68D-01  7.30D-01  7.95D-01  8.14D-01
 E= -1130.32504608799     Delta-E=       -0.000000000014 Rises=F Damp=F
 DIIS: error= 7.49D-09 at cycle  10 NSaved=  10.
 NSaved=10 IEnMin= 8 EnMin= -1130.32504608804     IErMin=10 ErrMin= 7.49D-09
 ErrMax= 7.49D-09  0.00D+00 EMaxC= 1.00D-01 BMatC= 7.88D-14 BMatP= 2.13D-12
 IDIUse=1 WtCom= 1.00D+00 WtEn= 0.00D+00
 Coeff-Com:  0.158D-06 0.767D-04-0.116D-03-0.125D-02-0.224D-02-0.381D-02
 Coeff-Com:  0.610D-02 0.545D-01 0.225D+00 0.722D+00
 Coeff:      0.158D-06 0.767D-04-0.116D-03-0.125D-02-0.224D-02-0.381D-02
 Coeff:      0.610D-02 0.545D-01 0.225D+00 0.722D+00
 Gap=     0.172 Goal=   None    Shift=    0.000
 RMSDP=2.19D-08 MaxDP=1.12D-06 DE=-1.41D-11 OVMax= 6.51D-08

 Cycle  11  Pass 1  IDiag  1:
 RMSU=  1.12D-08    CP:  9.97D-01  1.05D+00  5.03D-01  7.48D-01  7.73D-01
                    CP:  6.68D-01  7.36D-01  8.08D-01  8.00D-01  8.05D-01
 E= -1130.32504608809     Delta-E=       -0.000000000101 Rises=F Damp=F
 DIIS: error= 5.55D-09 at cycle  11 NSaved=  11.
 NSaved=11 IEnMin=11 EnMin= -1130.32504608809     IErMin=11 ErrMin= 5.55D-09
 ErrMax= 5.55D-09  0.00D+00 EMaxC= 1.00D-01 BMatC= 1.91D-14 BMatP= 7.88D-14
 IDIUse=1 WtCom= 1.00D+00 WtEn= 0.00D+00
 Coeff-Com: -0.245D-06 0.713D-04-0.545D-04-0.768D-03-0.144D-02-0.377D-02
 Coeff-Com: -0.247D-02 0.116D-01 0.831D-01 0.404D+00 0.510D+00
 Coeff:     -0.245D-06 0.713D-04-0.545D-04-0.768D-03-0.144D-02-0.377D-02
 Coeff:     -0.247D-02 0.116D-01 0.831D-01 0.404D+00 0.510D+00
 Gap=     0.172 Goal=   None    Shift=    0.000
 RMSDP=4.96D-09 MaxDP=4.26D-07 DE=-1.01D-10 OVMax= 2.55D-08

 SCF Done:  E(RB3LYP) =  -1130.32504609     A.U. after   11 cycles
            NFock= 11  Conv=0.50D-08     -V/T= 2.0059
 KE= 1.123703762055D+03 PE=-8.164211466471D+03 EE= 3.137784302808D+03
 Leave Link  502 at Mon Jul 28 19:18:00 2025, MaxMem=  1073741824 cpu:            1677.3 elap:             210.4
 (Enter /app/gaussian/g16/l701.exe)
 ... and contract with generalized density number  0.
 Compute integral first derivatives.
 Leave Link  701 at Mon Jul 28 19:18:00 2025, MaxMem=  1073741824 cpu:               1.9 elap:               0.3
 (Enter /app/gaussian/g16/l702.exe)
 L702 exits ... SP integral derivatives will be done elsewhere.
 Leave Link  702 at Mon Jul 28 19:18:00 2025, MaxMem=  1073741824 cpu:               0.2 elap:               0.0
 (Enter /app/gaussian/g16/l703.exe)
 Integral derivatives from FoFJK, PRISM(SPDF).
 Compute integral first derivatives, UseDBF=F ICtDFT=           0.
 Calling FoFJK, ICntrl=      2127 FMM=T ISym2X=0 I1Cent= 0 IOpClX= 0 NMat=1 NMatS=1 NMatT=0.
 FoFJK:  IHMeth= 1 ICntrl=    2127 DoSepK=F KAlg= 0 I1Cent=           0 FoldK=F
 IRaf=         0 NMat=       1 IRICut=       1 DoRegI=T DoRafI=F ISym2E= 0 IDoP0=0 IntGTp=1.
 FoFCou: FMM=T IPFlag=           0 FMFlag=      100000 FMFlg1=        2001
         NFxFlg=           0 DoJE=F BraDBF=F KetDBF=F FulRan=T
         wScrn=  0.000000 ICntrl=      2127 IOpCl=  0 I1Cent=           0 NGrid=           0
         NMat0=    1 NMatS0=      1 NMatT0=    0 NMatD0=    1 NMtDS0=    0 NMtDT0=    0
 Symmetry not used in FoFCou.
 FMM levels:  10  Number of levels for PrismC:   9
 Leave Link  703 at Mon Jul 28 19:18:50 2025, MaxMem=  1073741824 cpu:             397.4 elap:              49.8
 (Enter /app/gaussian/g16/l716.exe)
 Dipole        =-2.01110889D-01 9.13857538D-01 1.36163833D-01
 ***** Axes restored to original set *****
 -------------------------------------------------------------------
 Center     Atomic                   Forces (Hartrees/Bohr)
 Number     Number              X              Y              Z
 -------------------------------------------------------------------
      1        6          -0.000044088   -0.000097266    0.000022188
      2        6          -0.000101677    0.000052837   -0.000081693
      3        6           0.000037927   -0.000131773   -0.000018586
      4        6          -0.000041404    0.000064984   -0.000059795
      5        6           0.000102670    0.000120773    0.000141645
      6        6          -0.000051711    0.000099395   -0.000150657
      7        6           0.000001917   -0.000021446    0.000074331
      8        6           0.000131087   -0.000085562    0.000056702
      9        6          -0.000130857   -0.000010973   -0.000105105
     10        6           0.000095200   -0.000027789    0.000072610
     11        6          -0.000111752   -0.000029273    0.000032096
     12        6           0.000049399    0.000006233   -0.000093370
     13        8           0.000089800   -0.000125333    0.000083317
     14        6          -0.000028919   -0.000017354    0.000092970
     15        6           0.000024766    0.000005589   -0.000071887
     16        6           0.000032702   -0.000007469   -0.000081903
     17        6           0.000024743    0.000048383   -0.000007467
     18        6          -0.000057042    0.000114154   -0.000017293
     19        6           0.000021949   -0.000112219   -0.000001796
     20        6           0.000079649    0.000014205    0.000030050
     21        6           0.000069219   -0.000001664   -0.000022460
     22        6           0.000009397   -0.000028131   -0.000007072
     23        6          -0.000036277    0.000062882   -0.000001192
     24        6           0.000012952   -0.000026901   -0.000033728
     25        6          -0.000041138    0.000043835    0.000015958
     26        6           0.000001911   -0.000007440   -0.000015425
     27        6           0.000018203   -0.000016757   -0.000006400
     28        6          -0.000007855    0.000014973   -0.000008286
     29        1          -0.000010462   -0.000002280    0.000016662
     30        1           0.000025463    0.000021453   -0.000001531
     31        1          -0.000009250    0.000024433    0.000011232
     32        1          -0.000001258   -0.000008048   -0.000006887
     33        1          -0.000045413   -0.000024182    0.000011424
     34        1          -0.000022426    0.000014884   -0.000000149
     35        1           0.000000278   -0.000007111   -0.000021753
     36        1           0.000009035   -0.000001041    0.000006168
     37        1           0.000000125    0.000018079    0.000008986
     38        1          -0.000001670    0.000002029   -0.000021184
     39        1           0.000051671    0.000074922   -0.000043018
     40        1          -0.000002188    0.000028751    0.000009888
     41        1          -0.000032236   -0.000022205    0.000026263
     42        1          -0.000032819    0.000080301   -0.000013466
     43        1          -0.000007812   -0.000014916   -0.000041501
     44        1          -0.000016248    0.000007467   -0.000022207
     45        1          -0.000004987   -0.000018070    0.000038729
     46        1          -0.000041536   -0.000006114    0.000017154
     47        1           0.000014865   -0.000013402    0.000033367
     48        1          -0.000018594   -0.000031813    0.000018027
     49        1          -0.000006890    0.000005466    0.000019827
     50        1          -0.000001586    0.000004250   -0.000020272
     51        1          -0.000010260   -0.000001146    0.000004537
     52        1           0.000000664   -0.000010741    0.000027578
     53        1           0.000011889   -0.000001601    0.000003777
     54        1          -0.000007208    0.000018660    0.000008488
     55        1          -0.000014860    0.000011595    0.000023510
     56        1          -0.000007388    0.000019599    0.000009117
     57        1           0.000026246    0.000003291    0.000003668
     58        1           0.000014907   -0.000024023    0.000008038
     59        1           0.000010565   -0.000025130   -0.000001232
     60        1          -0.000001216   -0.000007014    0.000002144
     61        1          -0.000002587    0.000000762    0.000018533
     62        1          -0.000009940   -0.000008523   -0.000006810
     63        1           0.000008283   -0.000002040    0.000004876
     64        1          -0.000012374   -0.000005197    0.000000329
     65        1          -0.000000261   -0.000003396    0.000014842
     66        1           0.000004361    0.000011592    0.000001503
     67        1          -0.000007237   -0.000010161    0.000000811
     68        1           0.000013749    0.000008008   -0.000006493
     69        1           0.000000453    0.000002804    0.000001738
     70        1          -0.000015276    0.000005899    0.000011257
     71        1           0.000009822   -0.000015034   -0.000007194
     72        1          -0.000009161   -0.000001950    0.000013471
 -------------------------------------------------------------------
 Cartesian Forces:  Max     0.000150657 RMS     0.000043241
 Leave Link  716 at Mon Jul 28 19:18:50 2025, MaxMem=  1073741824 cpu:               0.2 elap:               0.0
 (Enter /app/gaussian/g16/l103.exe)

 GradGradGradGradGradGradGradGradGradGradGradGradGradGradGradGradGradGrad
 Berny optimization.
 Using GEDIIS/GDIIS optimizer.
 FormGI is forming the generalized inverse of G from B-inverse, IUseBI=4.
 Internal  Forces:  Max     0.000100808 RMS     0.000018817
 Search for a local minimum.
 Step number   8 out of a maximum of  432
 All quantities printed in internal units (Hartrees-Bohrs-Radians)
 RMS Force = .18817D-04 SwitMx=.10000D-02 MixMth= 2
 Mixed Optimization -- En-DIIS/RFO-DIIS
 Swapping is turned off.
 Update second derivatives using D2CorX and points    2    3    4    5    6
                                                      7    8
 DE= -9.71D-06 DEPred=-7.50D-06 R= 1.30D+00
 TightC=F SS=  1.41D+00  RLast= 3.14D-02 DXNew= 1.4270D+00 9.4278D-02
 Trust test= 1.30D+00 RLast= 3.14D-02 DXMaxT set to 8.49D-01
 ITU=  1  0  1  1  0  1  1  0
     Eigenvalues ---    0.00160   0.00235   0.00240   0.00241   0.00259
     Eigenvalues ---    0.00295   0.00299   0.00318   0.00343   0.00359
     Eigenvalues ---    0.00373   0.00438   0.00501   0.00513   0.00598
     Eigenvalues ---    0.00668   0.00912   0.01018   0.01053   0.01277
     Eigenvalues ---    0.01757   0.02019   0.02067   0.02135   0.02358
     Eigenvalues ---    0.02466   0.02565   0.02781   0.02820   0.03036
     Eigenvalues ---    0.03052   0.03225   0.03489   0.03521   0.03592
     Eigenvalues ---    0.03602   0.03760   0.03885   0.04057   0.04277
     Eigenvalues ---    0.04359   0.04433   0.04627   0.04674   0.04690
     Eigenvalues ---    0.04726   0.04744   0.04804   0.04843   0.04875
     Eigenvalues ---    0.04912   0.04924   0.04968   0.05075   0.05186
     Eigenvalues ---    0.05313   0.05351   0.05372   0.05406   0.05420
     Eigenvalues ---    0.05431   0.05443   0.05462   0.05477   0.05549
     Eigenvalues ---    0.05579   0.05587   0.05626   0.05691   0.05819
     Eigenvalues ---    0.05906   0.05944   0.05985   0.06375   0.06749
     Eigenvalues ---    0.06958   0.07134   0.07225   0.07570   0.07772
     Eigenvalues ---    0.08016   0.08079   0.08218   0.08236   0.08425
     Eigenvalues ---    0.08471   0.08718   0.09076   0.09134   0.09418
     Eigenvalues ---    0.09805   0.10206   0.10906   0.11127   0.12087
     Eigenvalues ---    0.12178   0.12489   0.12920   0.12982   0.14389
     Eigenvalues ---    0.14744   0.15380   0.15807   0.15923   0.15975
     Eigenvalues ---    0.15992   0.15995   0.16000   0.16000   0.16000
     Eigenvalues ---    0.16000   0.16000   0.16000   0.16000   0.16000
     Eigenvalues ---    0.16002   0.16007   0.16046   0.16082   0.16420
     Eigenvalues ---    0.16660   0.16805   0.17063   0.18327   0.18777
     Eigenvalues ---    0.19116   0.19360   0.20274   0.20988   0.21821
     Eigenvalues ---    0.21916   0.22354   0.22605   0.22757   0.22977
     Eigenvalues ---    0.24673   0.25563   0.25777   0.25848   0.26166
     Eigenvalues ---    0.26539   0.26984   0.27359   0.27684   0.27795
     Eigenvalues ---    0.27883   0.28151   0.28299   0.28470   0.28508
     Eigenvalues ---    0.28577   0.28673   0.28768   0.29023   0.29171
     Eigenvalues ---    0.29360   0.29460   0.29638   0.30159   0.30927
     Eigenvalues ---    0.31077   0.32814   0.33179   0.33261   0.33558
     Eigenvalues ---    0.33656   0.33723   0.33818   0.33889   0.33937
     Eigenvalues ---    0.33950   0.33955   0.33978   0.33994   0.34019
     Eigenvalues ---    0.34056   0.34064   0.34084   0.34100   0.34113
     Eigenvalues ---    0.34117   0.34127   0.34156   0.34180   0.34187
     Eigenvalues ---    0.34192   0.34201   0.34210   0.34214   0.34218
     Eigenvalues ---    0.34224   0.34231   0.34260   0.34278   0.34284
     Eigenvalues ---    0.34342   0.34355   0.34481   0.34618   0.34798
     Eigenvalues ---    0.35170   0.35265   0.35384   0.36040   0.37645
     Eigenvalues ---    0.38299   0.41398   0.52844   0.53234   0.54999
 En-DIIS/RFO-DIIS/Sim-DIIS IScMMF=       -3 using points:     8    7    6    5    4    3    2
 RFO step:  Lambda=-3.25899235D-06.
 NNeg= 0 NGDIIS= 7 SimSw=  2.50D-01 Rises=F DC= -9.71D-06 SmlDif=  1.00D-05
 NRisDI= 0 DoIntr=F SqrtH=F CThrHd= 10.0 CDAdj=  3.0
 RMS Error=  0.1260172955D-02 NUsed= 7 OKEnD=F EnDIS=F
 InvSVX:  RCond= 3.64D-05 Info=           0 Equed=N FErr=  1.20D-14 BErr=  9.37D-17
 DidBck=F Rises=F RFO-DIIS coefs:    1.15218   -0.06519    0.01403   -0.00670   -0.08971
                  RFO-DIIS coefs:   -0.00496    0.00036
 Iteration  1 RMS(Cart)=  0.00491996 RMS(Int)=  0.00001179
 Iteration  2 RMS(Cart)=  0.00001786 RMS(Int)=  0.00000102
 Iteration  3 RMS(Cart)=  0.00000000 RMS(Int)=  0.00000102
 ITry= 1 IFail=0 DXMaxC= 3.04D-02 DCOld= 1.00D+10 DXMaxT= 8.49D-01 DXLimC= 3.00D+00 Rises=F
 Variable       Old X    -DE/DX   Delta X   Delta X   Delta X     New X
                                 (Linear)    (Quad)   (Total)
    R1        2.93031  -0.00006  -0.00003  -0.00006  -0.00009   2.93022
    R2        2.06975  -0.00000   0.00004  -0.00004   0.00000   2.06975
    R3        2.06715   0.00003  -0.00004   0.00010   0.00007   2.06721
    R4        2.07034  -0.00003   0.00005  -0.00009  -0.00004   2.07030
    R5        2.95352  -0.00002  -0.00005  -0.00011  -0.00016   2.95336
    R6        2.91272  -0.00007  -0.00001  -0.00024  -0.00025   2.91248
    R7        2.95882   0.00010  -0.00015   0.00054   0.00039   2.95921
    R8        2.84637   0.00003   0.00011  -0.00009   0.00001   2.84638
    R9        2.91725   0.00002   0.00012   0.00003   0.00015   2.91741
   R10        2.09498  -0.00000  -0.00006   0.00004  -0.00002   2.09496
   R11        2.90687  -0.00003   0.00021  -0.00028  -0.00007   2.90680
   R12        2.55693  -0.00001  -0.00002  -0.00002  -0.00003   2.55690
   R13        2.98324   0.00007  -0.00016   0.00036   0.00020   2.98343
   R14        2.94960   0.00005  -0.00026   0.00042   0.00016   2.94976
   R15        2.09687   0.00003  -0.00006   0.00019   0.00013   2.09699
   R16        2.94676  -0.00005  -0.00001  -0.00012  -0.00013   2.94663
   R17        2.90809  -0.00008   0.00019  -0.00045  -0.00026   2.90783
   R18        2.96304   0.00005  -0.00027   0.00043   0.00016   2.96320
   R19        2.07075   0.00002  -0.00002   0.00007   0.00005   2.07080
   R20        2.07050   0.00001   0.00003   0.00002   0.00005   2.07055
   R21        2.06972   0.00001   0.00003  -0.00000   0.00003   2.06975
   R22        2.55195  -0.00004   0.00008  -0.00014  -0.00006   2.55189
   R23        2.84870   0.00004   0.00016  -0.00011   0.00005   2.84875
   R24        2.75997   0.00010  -0.00014   0.00035   0.00021   2.76018
   R25        2.05720   0.00002  -0.00002   0.00008   0.00006   2.05726
   R26        2.05366  -0.00000   0.00004  -0.00002   0.00001   2.05368
   R27        2.91852   0.00002  -0.00014   0.00020   0.00006   2.91857
   R28        2.06887   0.00006  -0.00004   0.00024   0.00021   2.06908
   R29        2.07902  -0.00002   0.00002  -0.00005  -0.00002   2.07900
   R30        2.79076  -0.00007   0.00059  -0.00050   0.00009   2.79085
   R31        2.91604  -0.00003  -0.00010  -0.00012  -0.00022   2.91582
   R32        2.07637   0.00001   0.00002   0.00003   0.00005   2.07643
   R33        1.84894  -0.00001   0.00003  -0.00006  -0.00003   1.84891
   R34        2.90726  -0.00000   0.00003   0.00003   0.00005   2.90731
   R35        2.07638   0.00000  -0.00010   0.00008  -0.00002   2.07636
   R36        2.07718  -0.00002   0.00016  -0.00018  -0.00002   2.07716
   R37        2.07155   0.00003   0.00001   0.00008   0.00009   2.07165
   R38        2.07472   0.00001  -0.00001   0.00003   0.00002   2.07475
   R39        2.92283  -0.00002   0.00016  -0.00015   0.00001   2.92284
   R40        2.06758  -0.00003   0.00008  -0.00014  -0.00006   2.06753
   R41        2.07319   0.00004  -0.00001   0.00014   0.00012   2.07332
   R42        2.08129   0.00002  -0.00002   0.00009   0.00007   2.08137
   R43        2.07800   0.00000  -0.00001   0.00001   0.00000   2.07800
   R44        2.96002   0.00007   0.00014   0.00014   0.00029   2.96031
   R45        2.07097   0.00000   0.00005  -0.00000   0.00005   2.07102
   R46        2.07364  -0.00003   0.00000  -0.00009  -0.00009   2.07354
   R47        2.96293  -0.00004  -0.00033  -0.00000  -0.00033   2.96260
   R48        2.06517   0.00001   0.00014  -0.00013   0.00001   2.06519
   R49        2.07113   0.00001  -0.00005   0.00005   0.00001   2.07113
   R50        2.94439   0.00004  -0.00038   0.00048   0.00010   2.94449
   R51        2.08768   0.00003   0.00003   0.00009   0.00012   2.08780
   R52        2.94501   0.00001   0.00000   0.00012   0.00012   2.94513
   R53        2.92679  -0.00001  -0.00001  -0.00005  -0.00006   2.92673
   R54        2.08582  -0.00001   0.00004  -0.00008  -0.00004   2.08578
   R55        2.91738  -0.00001   0.00015  -0.00012   0.00003   2.91741
   R56        2.07045  -0.00002  -0.00001  -0.00003  -0.00004   2.07042
   R57        2.08317   0.00003  -0.00002   0.00011   0.00009   2.08326
   R58        2.91500  -0.00000   0.00025  -0.00025  -0.00000   2.91500
   R59        2.07788  -0.00000  -0.00016   0.00010  -0.00006   2.07782
   R60        2.07070  -0.00001   0.00006  -0.00005   0.00001   2.07071
   R61        2.92559   0.00001   0.00017  -0.00016   0.00001   2.92561
   R62        2.08095   0.00000  -0.00003   0.00005   0.00002   2.08097
   R63        2.08339   0.00001  -0.00007   0.00011   0.00004   2.08342
   R64        2.91528  -0.00000   0.00019  -0.00018   0.00001   2.91530
   R65        2.91545  -0.00002   0.00012  -0.00014  -0.00003   2.91543
   R66        2.08446   0.00001  -0.00008   0.00010   0.00002   2.08448
   R67        2.07647   0.00001  -0.00005   0.00007   0.00002   2.07649
   R68        2.07358   0.00001   0.00000   0.00003   0.00004   2.07361
   R69        2.07336   0.00001   0.00002   0.00002   0.00004   2.07340
   R70        2.07695   0.00000  -0.00006   0.00006   0.00000   2.07695
   R71        2.07356   0.00002  -0.00002   0.00008   0.00006   2.07362
   R72        2.07070   0.00000  -0.00001   0.00003   0.00002   2.07072
   R73        2.07361   0.00002   0.00000   0.00007   0.00007   2.07368
   R74        2.07364   0.00002  -0.00003   0.00008   0.00005   2.07369
   R75        2.07116  -0.00001  -0.00002   0.00000  -0.00002   2.07114
    A1        1.93699  -0.00003   0.00015  -0.00033  -0.00018   1.93681
    A2        1.95264   0.00000   0.00011  -0.00001   0.00010   1.95273
    A3        1.94100   0.00000  -0.00009   0.00011   0.00002   1.94103
    A4        1.87072   0.00001  -0.00008   0.00010   0.00002   1.87074
    A5        1.87759   0.00001  -0.00019   0.00016  -0.00002   1.87756
    A6        1.88146   0.00000   0.00009  -0.00002   0.00007   1.88153
    A7        1.92603   0.00001  -0.00017   0.00034   0.00017   1.92620
    A8        1.93405  -0.00002  -0.00015  -0.00022  -0.00037   1.93369
    A9        1.98001   0.00002  -0.00035   0.00048   0.00013   1.98014
   A10        1.86743   0.00000   0.00024  -0.00049  -0.00025   1.86718
   A11        1.72932  -0.00001   0.00028   0.00004   0.00032   1.72964
   A12        2.01211   0.00000   0.00021  -0.00015   0.00007   2.01218
   A13        1.99735   0.00002  -0.00022   0.00013  -0.00008   1.99727
   A14        1.81646   0.00002  -0.00005   0.00064   0.00059   1.81706
   A15        1.82387  -0.00001   0.00047  -0.00063  -0.00015   1.82372
   A16        2.11174  -0.00004   0.00019  -0.00026  -0.00008   2.11167
   A17        1.83261   0.00001  -0.00016  -0.00000  -0.00016   1.83245
   A18        1.85843  -0.00000  -0.00017  -0.00001  -0.00017   1.85825
   A19        2.00645  -0.00004   0.00012  -0.00051  -0.00039   2.00606
   A20        2.15681   0.00003   0.00012   0.00022   0.00034   2.15715
   A21        2.09955   0.00000   0.00001   0.00004   0.00005   2.09960
   A22        1.98015   0.00000   0.00022  -0.00020   0.00002   1.98017
   A23        1.96283   0.00001   0.00020  -0.00024  -0.00004   1.96279
   A24        1.83450   0.00002  -0.00031   0.00071   0.00040   1.83491
   A25        1.95778  -0.00002  -0.00005  -0.00021  -0.00025   1.95753
   A26        1.86070  -0.00001   0.00015  -0.00023  -0.00008   1.86062
   A27        1.85567   0.00000  -0.00027   0.00027  -0.00000   1.85567
   A28        1.94995   0.00001  -0.00034   0.00038   0.00003   1.94998
   A29        1.93401  -0.00001   0.00047  -0.00055  -0.00008   1.93392
   A30        1.92526  -0.00000  -0.00023   0.00006  -0.00017   1.92509
   A31        1.85626  -0.00000   0.00008  -0.00008   0.00000   1.85626
   A32        1.90320  -0.00001  -0.00009   0.00017   0.00008   1.90328
   A33        1.89304   0.00001   0.00013   0.00003   0.00016   1.89319
   A34        1.91683  -0.00003   0.00024  -0.00042  -0.00018   1.91664
   A35        1.94774   0.00004  -0.00011   0.00035   0.00024   1.94798
   A36        1.93839  -0.00001   0.00015  -0.00015  -0.00001   1.93838
   A37        1.87378  -0.00000  -0.00014   0.00011  -0.00003   1.87375
   A38        1.88539   0.00001  -0.00004   0.00004  -0.00001   1.88539
   A39        1.89952  -0.00001  -0.00011   0.00009  -0.00002   1.89950
   A40        2.10222   0.00004  -0.00006   0.00013   0.00006   2.10229
   A41        2.02001  -0.00001   0.00010   0.00004   0.00013   2.02014
   A42        2.15993  -0.00003   0.00004  -0.00025  -0.00021   2.15971
   A43        2.12700  -0.00002   0.00018  -0.00019  -0.00001   2.12700
   A44        2.09501   0.00002  -0.00011   0.00010  -0.00001   2.09500
   A45        2.05981  -0.00000  -0.00007   0.00004  -0.00002   2.05979
   A46        2.12125  -0.00002   0.00006  -0.00012  -0.00007   2.12118
   A47        2.09736   0.00002  -0.00003   0.00013   0.00010   2.09746
   A48        2.05848  -0.00000  -0.00008   0.00010   0.00002   2.05850
   A49        1.94281  -0.00001   0.00055  -0.00035   0.00020   1.94301
   A50        1.94333  -0.00003  -0.00001  -0.00053  -0.00054   1.94279
   A51        1.93068  -0.00000   0.00016  -0.00012   0.00003   1.93071
   A52        1.92860   0.00006  -0.00072   0.00130   0.00058   1.92918
   A53        1.84884   0.00000   0.00029  -0.00022   0.00007   1.84891
   A54        1.86581  -0.00002  -0.00029  -0.00004  -0.00033   1.86549
   A55        1.83206   0.00002   0.00071  -0.00072  -0.00001   1.83205
   A56        1.94731   0.00003  -0.00009   0.00047   0.00038   1.94769
   A57        1.92558   0.00000  -0.00061   0.00087   0.00026   1.92584
   A58        1.94948  -0.00004   0.00019  -0.00081  -0.00062   1.94886
   A59        1.89059   0.00000   0.00009  -0.00025  -0.00017   1.89042
   A60        1.91669  -0.00001  -0.00025   0.00039   0.00014   1.91683
   A61        1.93900   0.00003   0.00039  -0.00027   0.00012   1.93912
   A62        1.94554  -0.00003  -0.00006  -0.00026  -0.00032   1.94522
   A63        1.90994   0.00002  -0.00004  -0.00003  -0.00006   1.90988
   A64        1.89684  -0.00001   0.00044  -0.00038   0.00007   1.89691
   A65        1.93520  -0.00000   0.00005  -0.00022  -0.00016   1.93504
   A66        1.91489   0.00002  -0.00031   0.00053   0.00021   1.91511
   A67        1.85906   0.00001  -0.00008   0.00037   0.00029   1.85935
   A68        1.95038   0.00001  -0.00001   0.00017   0.00016   1.95053
   A69        1.91889   0.00002  -0.00018   0.00017  -0.00001   1.91888
   A70        1.91168   0.00002   0.00001   0.00035   0.00036   1.91203
   A71        1.92745  -0.00003   0.00018  -0.00045  -0.00027   1.92718
   A72        1.89623  -0.00002   0.00012  -0.00040  -0.00028   1.89596
   A73        1.85667   0.00001  -0.00013   0.00016   0.00003   1.85671
   A74        2.00250  -0.00001   0.00006  -0.00004   0.00002   2.00252
   A75        1.90956   0.00002  -0.00001   0.00028   0.00027   1.90984
   A76        1.90460   0.00001  -0.00014   0.00012  -0.00002   1.90458
   A77        1.88273  -0.00001   0.00023  -0.00041  -0.00018   1.88255
   A78        1.90349  -0.00001   0.00005  -0.00011  -0.00007   1.90342
   A79        1.85527   0.00000  -0.00021   0.00018  -0.00003   1.85524
   A80        1.93665   0.00000  -0.00001  -0.00007  -0.00008   1.93658
   A81        1.90114  -0.00000   0.00004   0.00005   0.00009   1.90123
   A82        1.93706   0.00000   0.00000  -0.00007  -0.00007   1.93698
   A83        1.92174   0.00000  -0.00000   0.00010   0.00010   1.92183
   A84        1.90072  -0.00001   0.00015  -0.00030  -0.00014   1.90057
   A85        1.86527   0.00001  -0.00019   0.00030   0.00011   1.86538
   A86        1.81799  -0.00003   0.00018  -0.00016   0.00002   1.81801
   A87        1.95681   0.00001  -0.00028  -0.00002  -0.00030   1.95651
   A88        1.92960   0.00001   0.00021   0.00005   0.00027   1.92987
   A89        1.95749   0.00000  -0.00004   0.00008   0.00005   1.95754
   A90        1.93434   0.00001   0.00009  -0.00008   0.00001   1.93434
   A91        1.86890  -0.00000  -0.00016   0.00012  -0.00004   1.86886
   A92        1.85012   0.00002   0.00002   0.00022   0.00024   1.85036
   A93        1.92968   0.00000  -0.00039   0.00020  -0.00019   1.92949
   A94        1.94488  -0.00002   0.00035  -0.00041  -0.00005   1.94482
   A95        1.94943  -0.00000  -0.00015  -0.00001  -0.00016   1.94927
   A96        1.93094  -0.00000   0.00025   0.00002   0.00027   1.93121
   A97        1.86037   0.00000  -0.00008  -0.00002  -0.00011   1.86027
   A98        1.80781  -0.00001  -0.00024   0.00038   0.00013   1.80794
   A99        2.10766   0.00005  -0.00038   0.00042   0.00004   2.10770
   A100       1.80888  -0.00002   0.00023  -0.00047  -0.00024   1.80865
   A101       2.06746  -0.00003  -0.00010   0.00018   0.00009   2.06755
   A102       1.84186  -0.00000   0.00041  -0.00064  -0.00023   1.84164
   A103       1.79731   0.00000   0.00028  -0.00018   0.00010   1.79741
   A104       2.10484   0.00001  -0.00118   0.00116  -0.00001   2.10483
   A105       1.91144  -0.00003   0.00025  -0.00022   0.00002   1.91147
   A106       1.82654   0.00000   0.00036  -0.00048  -0.00012   1.82642
   A107       1.92812   0.00002   0.00017   0.00006   0.00023   1.92835
   A108       1.81962  -0.00000   0.00056  -0.00050   0.00006   1.81968
   A109       1.85194  -0.00001  -0.00001  -0.00023  -0.00024   1.85170
   A110       2.07926  -0.00003  -0.00046   0.00026  -0.00020   2.07906
   A111       1.91398   0.00002  -0.00021   0.00026   0.00005   1.91403
   A112       1.84281   0.00000   0.00047  -0.00031   0.00016   1.84297
   A113       1.89735  -0.00002  -0.00010  -0.00011  -0.00022   1.89713
   A114       1.87372   0.00002   0.00049  -0.00022   0.00027   1.87398
   A115       1.84161  -0.00001  -0.00012   0.00010  -0.00001   1.84159
   A116       1.95185  -0.00002   0.00048  -0.00053  -0.00005   1.95180
   A117       1.92326   0.00001   0.00010  -0.00007   0.00003   1.92329
   A118       1.91971   0.00000  -0.00046   0.00040  -0.00006   1.91965
   A119       1.89862  -0.00000   0.00001  -0.00016  -0.00015   1.89847
   A120       1.90684   0.00001  -0.00013   0.00020   0.00007   1.90691
   A121       1.86118   0.00001  -0.00002   0.00020   0.00018   1.86135
   A122       2.01042  -0.00000   0.00032  -0.00036  -0.00004   2.01037
   A123       1.89389  -0.00002  -0.00014  -0.00011  -0.00025   1.89364
   A124       1.90940   0.00001  -0.00000   0.00011   0.00010   1.90950
   A125       1.89222   0.00001  -0.00007   0.00012   0.00005   1.89227
   A126       1.89786   0.00000  -0.00008   0.00017   0.00009   1.89795
   A127       1.85369   0.00000  -0.00005   0.00011   0.00006   1.85374
   A128       1.92813  -0.00002   0.00017  -0.00035  -0.00018   1.92794
   A129       1.96266   0.00003   0.00012   0.00003   0.00016   1.96282
   A130       1.87723   0.00000   0.00002   0.00014   0.00015   1.87738
   A131       1.92658  -0.00001  -0.00011  -0.00007  -0.00018   1.92639
   A132       1.88203   0.00000  -0.00015   0.00009  -0.00006   1.88197
   A133       1.88423  -0.00000  -0.00006   0.00019   0.00013   1.88436
   A134       1.93140  -0.00001   0.00003  -0.00006  -0.00003   1.93137
   A135       1.94214  -0.00001   0.00013  -0.00018  -0.00006   1.94209
   A136       1.94056  -0.00001   0.00019  -0.00022  -0.00003   1.94054
   A137       1.88188   0.00001  -0.00006   0.00011   0.00005   1.88193
   A138       1.88080   0.00001  -0.00010   0.00017   0.00007   1.88087
   A139       1.88465   0.00001  -0.00021   0.00021   0.00000   1.88465
   A140       1.92906  -0.00001   0.00004  -0.00013  -0.00009   1.92896
   A141       1.93395  -0.00000  -0.00001  -0.00000  -0.00001   1.93394
   A142       1.95604   0.00000   0.00023  -0.00014   0.00009   1.95612
   A143       1.88027   0.00001  -0.00003   0.00009   0.00006   1.88033
   A144       1.88394   0.00000  -0.00001   0.00000  -0.00000   1.88394
   A145       1.87784   0.00000  -0.00023   0.00020  -0.00004   1.87780
   A146       1.93550  -0.00001   0.00002  -0.00013  -0.00011   1.93539
   A147       1.93317  -0.00001   0.00008  -0.00013  -0.00005   1.93312
   A148       1.95256   0.00002   0.00019   0.00002   0.00021   1.95277
   A149       1.88195   0.00001  -0.00018   0.00019   0.00001   1.88196
   A150       1.87770  -0.00001  -0.00010  -0.00000  -0.00010   1.87759
   A151       1.88015   0.00000  -0.00003   0.00007   0.00004   1.88019
    D1       -0.74054   0.00000   0.00056  -0.00093  -0.00037  -0.74092
    D2        1.32470  -0.00000   0.00065  -0.00146  -0.00081   1.32389
    D3       -2.66296  -0.00000   0.00051  -0.00144  -0.00093  -2.66389
    D4        1.34805  -0.00000   0.00062  -0.00103  -0.00041   1.34765
    D5       -2.86988  -0.00000   0.00072  -0.00156  -0.00084  -2.87073
    D6       -0.57436  -0.00001   0.00058  -0.00154  -0.00096  -0.57533
    D7       -2.83008   0.00001   0.00075  -0.00098  -0.00023  -2.83032
    D8       -0.76483   0.00000   0.00085  -0.00151  -0.00067  -0.76550
    D9        1.53069  -0.00000   0.00070  -0.00150  -0.00079   1.52989
   D10        1.08492  -0.00004  -0.00014  -0.00131  -0.00145   1.08347
   D11       -1.25720  -0.00002  -0.00018  -0.00163  -0.00180  -1.25900
   D12        3.07948  -0.00002  -0.00015  -0.00163  -0.00178   3.07770
   D13       -1.02069  -0.00002  -0.00001  -0.00094  -0.00095  -1.02163
   D14        2.92038   0.00000  -0.00005  -0.00126  -0.00130   2.91908
   D15        0.97387  -0.00000  -0.00002  -0.00126  -0.00128   0.97260
   D16       -3.11643  -0.00002  -0.00045  -0.00062  -0.00107  -3.11750
   D17        0.82463  -0.00000  -0.00049  -0.00093  -0.00142   0.82321
   D18       -1.12187  -0.00000  -0.00046  -0.00094  -0.00140  -1.12327
   D19       -1.06682   0.00001   0.00017   0.00029   0.00046  -1.06636
   D20        3.09806   0.00000   0.00015   0.00018   0.00033   3.09838
   D21        1.04909  -0.00000   0.00035  -0.00018   0.00018   1.04927
   D22        1.03367   0.00001   0.00002   0.00027   0.00029   1.03396
   D23       -1.08463   0.00000   0.00000   0.00016   0.00016  -1.08447
   D24       -3.13360  -0.00001   0.00021  -0.00020   0.00001  -3.13359
   D25        2.93754   0.00000   0.00061  -0.00005   0.00055   2.93810
   D26        0.81924   0.00000   0.00059  -0.00017   0.00042   0.81966
   D27       -1.22973  -0.00001   0.00079  -0.00052   0.00027  -1.22946
   D28        1.29050   0.00002  -0.00074   0.00190   0.00116   1.29166
   D29       -1.07581   0.00003   0.00004   0.00081   0.00084  -1.07496
   D30       -3.07276   0.00001  -0.00030   0.00117   0.00087  -3.07189
   D31       -0.75072   0.00001  -0.00056   0.00130   0.00073  -0.74999
   D32       -3.11702   0.00002   0.00021   0.00020   0.00042  -3.11661
   D33        1.16921  -0.00000  -0.00012   0.00057   0.00045   1.16966
   D34       -2.73620   0.00000  -0.00109   0.00191   0.00082  -2.73538
   D35        1.18068   0.00001  -0.00031   0.00081   0.00050   1.18118
   D36       -0.81627  -0.00001  -0.00065   0.00118   0.00053  -0.81574
   D37        0.87580   0.00001  -0.00029   0.00123   0.00094   0.87674
   D38       -2.48142   0.00001   0.00103  -0.00009   0.00093  -2.48049
   D39        3.07103   0.00002  -0.00041   0.00210   0.00169   3.07272
   D40       -0.28620   0.00003   0.00091   0.00078   0.00168  -0.28452
   D41       -1.11363   0.00000  -0.00065   0.00192   0.00127  -1.11236
   D42        1.81234   0.00000   0.00066   0.00060   0.00126   1.81360
   D43       -0.57477  -0.00000   0.00136   0.00021   0.00157  -0.57320
   D44       -2.69524   0.00000   0.00144   0.00022   0.00166  -2.69358
   D45        1.50390  -0.00000   0.00168   0.00005   0.00172   1.50562
   D46       -2.85080  -0.00002   0.00156  -0.00041   0.00116  -2.84964
   D47        1.31193  -0.00001   0.00164  -0.00040   0.00125   1.31317
   D48       -0.77212  -0.00002   0.00188  -0.00057   0.00131  -0.77082
   D49        1.34653  -0.00000   0.00180  -0.00022   0.00158   1.34810
   D50       -0.77394   0.00000   0.00188  -0.00021   0.00167  -0.77227
   D51       -2.85799  -0.00000   0.00211  -0.00038   0.00173  -2.85626
   D52       -2.95111   0.00001   0.00006  -0.00006   0.00000  -2.95111
   D53       -0.70577  -0.00001   0.00036  -0.00073  -0.00037  -0.70614
   D54        1.30578   0.00001  -0.00004  -0.00012  -0.00016   1.30563
   D55        0.39844   0.00000  -0.00122   0.00119  -0.00003   0.39841
   D56        2.64378  -0.00001  -0.00092   0.00052  -0.00040   2.64337
   D57       -1.62785   0.00000  -0.00132   0.00113  -0.00019  -1.62804
   D58       -2.87491  -0.00001  -0.00053   0.00036  -0.00017  -2.87509
   D59        0.14586   0.00001  -0.00113   0.00142   0.00028   0.14614
   D60        0.04009  -0.00001   0.00086  -0.00109  -0.00023   0.03985
   D61        3.06086   0.00000   0.00026  -0.00004   0.00022   3.06108
   D62        1.40611  -0.00001   0.00159  -0.00167  -0.00008   1.40603
   D63       -0.66047  -0.00001   0.00140  -0.00145  -0.00005  -0.66051
   D64       -2.75707  -0.00001   0.00109  -0.00116  -0.00008  -2.75715
   D65       -0.84181  -0.00000   0.00117  -0.00098   0.00019  -0.84163
   D66       -2.90839  -0.00000   0.00098  -0.00076   0.00022  -2.90817
   D67        1.27819  -0.00001   0.00066  -0.00048   0.00019   1.27837
   D68       -2.86628   0.00001   0.00142  -0.00105   0.00037  -2.86591
   D69        1.35032   0.00001   0.00124  -0.00084   0.00040   1.35073
   D70       -0.74628   0.00001   0.00092  -0.00055   0.00037  -0.74591
   D71        0.75132   0.00002  -0.00051   0.00046  -0.00004   0.75128
   D72       -1.36701   0.00002  -0.00084   0.00081  -0.00003  -1.36704
   D73        2.89296   0.00001  -0.00051   0.00038  -0.00013   2.89283
   D74        3.00829   0.00001  -0.00008  -0.00020  -0.00027   3.00802
   D75        0.88996   0.00002  -0.00041   0.00015  -0.00026   0.88970
   D76       -1.13325  -0.00000  -0.00008  -0.00029  -0.00036  -1.13362
   D77       -1.24739  -0.00001  -0.00009  -0.00042  -0.00051  -1.24790
   D78        2.91746  -0.00001  -0.00042  -0.00007  -0.00049   2.91697
   D79        0.89425  -0.00002  -0.00009  -0.00051  -0.00060   0.89365
   D80       -2.96258   0.00001  -0.00075   0.00196   0.00122  -2.96137
   D81        1.24476   0.00001  -0.00067   0.00189   0.00122   1.24599
   D82       -0.87818   0.00000  -0.00055   0.00164   0.00109  -0.87710
   D83       -0.85020   0.00000  -0.00032   0.00146   0.00113  -0.84906
   D84       -2.92603  -0.00000  -0.00024   0.00138   0.00114  -2.92490
   D85        1.23420  -0.00001  -0.00013   0.00113   0.00100   1.23521
   D86        1.18790   0.00001  -0.00017   0.00153   0.00136   1.18926
   D87       -0.88794   0.00001  -0.00009   0.00145   0.00136  -0.88658
   D88       -3.01089   0.00000   0.00002   0.00120   0.00123  -3.00966
   D89        0.56327   0.00001  -0.00155   0.00196   0.00041   0.56368
   D90       -2.62526   0.00000  -0.00009   0.00010   0.00001  -2.62525
   D91       -1.55932   0.00000  -0.00145   0.00187   0.00042  -1.55890
   D92        1.53534  -0.00001   0.00001   0.00001   0.00002   1.53536
   D93        2.67899   0.00001  -0.00146   0.00171   0.00025   2.67924
   D94       -0.50953  -0.00000   0.00000  -0.00015  -0.00015  -0.50968
   D95        1.55560  -0.00002   0.00099  -0.00067   0.00032   1.55592
   D96       -0.59114   0.00000   0.00089  -0.00033   0.00056  -0.59059
   D97       -2.62537  -0.00002   0.00114  -0.00083   0.00031  -2.62506
   D98       -2.58005  -0.00000   0.00036  -0.00005   0.00030  -2.57975
   D99        1.55639   0.00001   0.00025   0.00029   0.00054   1.55692
   D100      -0.47784  -0.00001   0.00051  -0.00021   0.00029  -0.47755
   D101      -0.56550  -0.00000   0.00048  -0.00005   0.00043  -0.56507
   D102      -2.71225   0.00001   0.00037   0.00029   0.00067  -2.71158
   D103       1.53671  -0.00001   0.00063  -0.00020   0.00042   1.53713
   D104      -0.14711  -0.00002   0.00130  -0.00202  -0.00071  -0.14782
   D105       3.05181  -0.00001   0.00118  -0.00120  -0.00002   3.05179
   D106       3.04533  -0.00001  -0.00028  -0.00001  -0.00029   3.04504
   D107      -0.03893   0.00000  -0.00040   0.00080   0.00040  -0.03853
   D108       1.09073  -0.00001  -0.00120   0.00027  -0.00093   1.08979
   D109      -3.03198   0.00004  -0.00173   0.00131  -0.00043  -3.03241
   D110      -0.95988  -0.00000  -0.00200   0.00084  -0.00116  -0.96104
   D111      -2.09953  -0.00002   0.00031  -0.00165  -0.00134  -2.10087
   D112       0.06095   0.00003  -0.00022  -0.00061  -0.00084   0.06011
   D113       2.13305  -0.00001  -0.00049  -0.00108  -0.00157   2.13148
   D114      -0.18995   0.00001  -0.00087   0.00147   0.00060  -0.18935
   D115       3.06987  -0.00001  -0.00028   0.00043   0.00014   3.07001
   D116       2.89542  -0.00000  -0.00075   0.00067  -0.00008   2.89534
   D117      -0.12795  -0.00002  -0.00016  -0.00037  -0.00053  -0.12848
   D118      -2.60101   0.00003   0.00134   0.00061   0.00195  -2.59907
   D119      -0.48661   0.00001   0.00196  -0.00056   0.00140  -0.48521
   D120       1.64900   0.00001   0.00114   0.00087   0.00202   1.65102
   D121       1.51336   0.00003   0.00148   0.00060   0.00208   1.51544
   D122      -2.65543   0.00001   0.00210  -0.00056   0.00153  -2.65390
   D123      -0.51982   0.00002   0.00128   0.00087   0.00215  -0.51767
   D124      -0.50142   0.00002   0.00201   0.00013   0.00214  -0.49928
   D125       1.61298  -0.00000   0.00263  -0.00104   0.00159   1.61457
   D126      -2.53460   0.00001   0.00182   0.00040   0.00221  -2.53238
   D127      -2.99928   0.00005   0.00310   0.00348   0.00658  -2.99271
   D128       1.17093   0.00003   0.00266   0.00380   0.00647   1.17740
   D129      -0.94221   0.00007   0.00280   0.00399   0.00679  -0.93541
   D130      -0.55426   0.00000  -0.00171   0.00076  -0.00095  -0.55521
   D131      -2.70127   0.00002  -0.00171   0.00123  -0.00049  -2.70176
   D132       1.55831   0.00000  -0.00185   0.00100  -0.00084   1.55746
   D133       1.49031   0.00002  -0.00076  -0.00036  -0.00112   1.48920
   D134      -0.65670   0.00003  -0.00076   0.00011  -0.00065  -0.65735
   D135      -2.68031   0.00002  -0.00089  -0.00011  -0.00101  -2.68132
   D136      -2.69497  -0.00001  -0.00069  -0.00094  -0.00164  -2.69660
   D137       1.44120   0.00000  -0.00069  -0.00048  -0.00117   1.44003
   D138      -0.58240  -0.00001  -0.00083  -0.00070  -0.00153  -0.58393
   D139       1.13988  -0.00001   0.00051  -0.00057  -0.00006   1.13982
   D140      -3.00143  -0.00000   0.00041  -0.00056  -0.00015  -3.00158
   D141      -0.97132  -0.00002   0.00043  -0.00084  -0.00042  -0.97174
   D142      -3.01079  -0.00001   0.00046  -0.00093  -0.00048  -3.01127
   D143      -0.86892  -0.00001   0.00036  -0.00092  -0.00057  -0.86948
   D144       1.16119  -0.00003   0.00037  -0.00121  -0.00084   1.16035
   D145      -0.96211   0.00001   0.00020  -0.00028  -0.00008  -0.96219
   D146       1.17977   0.00001   0.00010  -0.00027  -0.00017   1.17960
   D147      -3.07331  -0.00001   0.00012  -0.00056  -0.00044  -3.07375
   D148      -0.95077  -0.00000   0.00040  -0.00029   0.00010  -0.95067
   D149       1.15539  -0.00000   0.00044  -0.00021   0.00023   1.15563
   D150      -3.08792   0.00000   0.00030   0.00004   0.00034  -3.08758
   D151       1.18216   0.00001   0.00060  -0.00026   0.00034   1.18250
   D152      -2.99486   0.00001   0.00065  -0.00018   0.00047  -2.99439
   D153      -0.95499   0.00001   0.00050   0.00007   0.00057  -0.95441
   D154      -3.09301  -0.00000   0.00050  -0.00033   0.00017  -3.09284
   D155      -0.98685  -0.00000   0.00055  -0.00025   0.00030  -0.98655
   D156       1.05302   0.00000   0.00040   0.00000   0.00041   1.05343
   D157       0.09329  -0.00001  -0.00156   0.00038  -0.00118   0.09210
   D158       2.20897   0.00000  -0.00194   0.00061  -0.00134   2.20763
   D159      -2.00858  -0.00000  -0.00208   0.00045  -0.00163  -2.01020
   D160       2.21330  -0.00002  -0.00180   0.00029  -0.00150   2.21180
   D161      -1.95420  -0.00000  -0.00218   0.00052  -0.00166  -1.95586
   D162       0.11144  -0.00001  -0.00231   0.00037  -0.00195   0.10949
   D163      -1.98215  -0.00001  -0.00196   0.00045  -0.00151  -1.98367
   D164       0.13353   0.00000  -0.00234   0.00068  -0.00167   0.13186
   D165       2.19917  -0.00000  -0.00248   0.00052  -0.00196   2.19721
   D166       0.41800  -0.00001   0.00125  -0.00101   0.00023   0.41823
   D167       2.80621   0.00003   0.00034   0.00018   0.00052   2.80673
   D168      -1.47742   0.00002   0.00094  -0.00041   0.00052  -1.47689
   D169      -1.68490  -0.00002   0.00179  -0.00139   0.00040  -1.68450
   D170       0.70330   0.00001   0.00088  -0.00020   0.00069   0.70399
   D171       2.70286  -0.00000   0.00148  -0.00079   0.00069   2.70356
   D172       2.52889  -0.00002   0.00182  -0.00136   0.00047   2.52936
   D173      -1.36608   0.00001   0.00092  -0.00017   0.00075  -1.36533
   D174       0.63348  -0.00000   0.00152  -0.00076   0.00076   0.63423
   D175       1.06982   0.00000   0.00124  -0.00054   0.00070   1.07052
   D176      -2.94710   0.00001   0.00063   0.00041   0.00105  -2.94605
   D177      -0.96812  -0.00001   0.00091  -0.00019   0.00072  -0.96740
   D178      -1.18687  -0.00000   0.00222  -0.00190   0.00032  -1.18655
   D179       1.07939   0.00001   0.00161  -0.00094   0.00067   1.08007
   D180       3.05838  -0.00001   0.00189  -0.00154   0.00034   3.05872
   D181       3.07276   0.00001   0.00155  -0.00106   0.00049   3.07325
   D182      -0.94416   0.00002   0.00095  -0.00010   0.00084  -0.94332
   D183       1.03482   0.00000   0.00122  -0.00071   0.00051   1.03533
   D184       1.18664  -0.00003  -0.00224  -0.00140  -0.00364   1.18301
   D185      -1.01413  -0.00001  -0.00150  -0.00170  -0.00321  -1.01734
   D186      -2.99055  -0.00002  -0.00151  -0.00178  -0.00329  -2.99384
   D187      -1.07229  -0.00002  -0.00165  -0.00225  -0.00390  -1.07619
   D188       3.01012   0.00000  -0.00092  -0.00255  -0.00347   3.00665
   D189       1.03370  -0.00000  -0.00093  -0.00263  -0.00356   1.03015
   D190      -3.05508  -0.00002  -0.00200  -0.00175  -0.00375  -3.05883
   D191       1.02733   0.00000  -0.00127  -0.00205  -0.00332   1.02401
   D192      -0.94909  -0.00000  -0.00127  -0.00213  -0.00341  -0.95249
   D193       0.94778  -0.00001   0.00198  -0.00097   0.00101   0.94879
   D194       3.03666  -0.00001   0.00182  -0.00091   0.00091   3.03757
   D195      -1.14861  -0.00000   0.00196  -0.00089   0.00107  -1.14754
   D196      -2.97681   0.00000   0.00073   0.00049   0.00121  -2.97560
   D197      -0.88794   0.00000   0.00057   0.00055   0.00112  -0.88682
   D198       1.20998   0.00001   0.00071   0.00057   0.00127   1.21125
   D199      -1.01467   0.00001   0.00145  -0.00019   0.00126  -1.01341
   D200       1.07421   0.00000   0.00129  -0.00013   0.00116   1.07537
   D201      -3.11106   0.00001   0.00143  -0.00011   0.00132  -3.10974
   D202       2.93923  -0.00000  -0.00097  -0.00094  -0.00192   2.93731
   D203       0.82515   0.00001  -0.00138  -0.00033  -0.00171   0.82344
   D204      -1.22189   0.00000  -0.00113  -0.00077  -0.00191  -1.22380
   D205      -1.13531  -0.00000  -0.00175  -0.00047  -0.00222  -1.13752
   D206       3.03380   0.00001  -0.00215   0.00014  -0.00201   3.03179
   D207       0.98676  -0.00000  -0.00191  -0.00030  -0.00221   0.98455
   D208       0.84893  -0.00001  -0.00169  -0.00052  -0.00220   0.84672
   D209      -1.26515   0.00001  -0.00209   0.00009  -0.00200  -1.26715
   D210       2.97099  -0.00000  -0.00184  -0.00035  -0.00220   2.96879
   D211      -3.08776  -0.00000  -0.00209  -0.00070  -0.00279  -3.09055
   D212      -0.96349  -0.00000  -0.00208  -0.00087  -0.00294  -0.96643
   D213       1.05180  -0.00000  -0.00221  -0.00074  -0.00296   1.04884
   D214      -0.95947  -0.00001  -0.00165  -0.00124  -0.00289  -0.96236
   D215       1.16480  -0.00001  -0.00163  -0.00141  -0.00304   1.16176
   D216      -3.10310  -0.00001  -0.00177  -0.00129  -0.00306  -3.10615
   D217       1.06596   0.00000  -0.00174  -0.00098  -0.00272   1.06324
   D218      -3.09295   0.00000  -0.00172  -0.00116  -0.00288  -3.09583
   D219      -1.07767  -0.00000  -0.00186  -0.00103  -0.00289  -1.08056
   D220       2.99065  -0.00001  -0.00156  -0.00112  -0.00268   2.98797
   D221      -1.13147  -0.00002  -0.00149  -0.00145  -0.00294  -1.13441
   D222       0.94074  -0.00000  -0.00148  -0.00111  -0.00259   0.93815
   D223       0.86548   0.00001  -0.00153  -0.00083  -0.00236   0.86311
   D224       3.02655  -0.00000  -0.00146  -0.00116  -0.00262   3.02392
   D225      -1.18443   0.00001  -0.00146  -0.00082  -0.00227  -1.18670
   D226      -1.14277  -0.00000  -0.00140  -0.00110  -0.00250  -1.14527
   D227       1.01830  -0.00001  -0.00133  -0.00144  -0.00276   1.01554
   D228       3.09052   0.00000  -0.00132  -0.00110  -0.00241   3.08810
   D229       1.09045   0.00000  -0.00069  -0.00052  -0.00121   1.08924
   D230      -1.00153   0.00000  -0.00071  -0.00050  -0.00121  -1.00274
   D231      -3.10316   0.00001  -0.00066  -0.00049  -0.00115  -3.10432
   D232      -1.09129  -0.00001  -0.00089  -0.00026  -0.00115  -1.09244
   D233       3.09991  -0.00001  -0.00091  -0.00024  -0.00115   3.09877
   D234       0.99828  -0.00001  -0.00086  -0.00023  -0.00109   0.99719
   D235       3.13739  -0.00000  -0.00066  -0.00050  -0.00116   3.13623
   D236       1.04541  -0.00000  -0.00068  -0.00048  -0.00116   1.04425
   D237      -1.05622  -0.00000  -0.00064  -0.00047  -0.00111  -1.05733
   D238      -1.04545   0.00001  -0.00161   0.00123  -0.00038  -1.04583
   D239      -3.12853   0.00001  -0.00159   0.00121  -0.00039  -3.12892
   D240       1.05680   0.00001  -0.00144   0.00106  -0.00039   1.05641
   D241       1.11648  -0.00000  -0.00139   0.00074  -0.00064   1.11584
   D242      -0.96660  -0.00000  -0.00137   0.00072  -0.00065  -0.96725
   D243      -3.06446  -0.00000  -0.00122   0.00057  -0.00065  -3.06511
   D244      -3.11355  -0.00000  -0.00166   0.00092  -0.00074  -3.11429
   D245       1.08655  -0.00000  -0.00165   0.00090  -0.00075   1.08580
   D246      -1.01131  -0.00000  -0.00150   0.00075  -0.00075  -1.01206
         Item               Value     Threshold  Converged?
 Maximum Force            0.000101     0.000450     YES
 RMS     Force            0.000019     0.000300     YES
 Maximum Displacement     0.030447     0.001800     NO 
 RMS     Displacement     0.004920     0.001200     NO 
 Predicted change in Energy=-1.613408D-06
 Lowest energy point so far.  Saving SCF results.
 GradGradGradGradGradGradGradGradGradGradGradGradGradGradGradGradGradGrad

 Leave Link  103 at Mon Jul 28 19:18:50 2025, MaxMem=  1073741824 cpu:               1.2 elap:               0.2
 (Enter /app/gaussian/g16/l202.exe)
 Stoichiometry    C27H44O
 Framework group  C1[X(C27H44O)]
 Deg. of freedom   210
 Full point group                 C1      NOp   1
 RotChk:  IX=0 Diff= 8.53D-04
 Largest Abelian subgroup         C1      NOp   1
 Largest concise Abelian subgroup C1      NOp   1
                         Standard orientation:                         
 ---------------------------------------------------------------------
 Center     Atomic      Atomic             Coordinates (Angstroms)
 Number     Number       Type             X           Y           Z
 ---------------------------------------------------------------------
      1          6           0       -1.084528   -0.476197   -0.657020
      2          6           0       -0.646203    0.892452   -0.074739
      3          6           0        0.247274    0.684143    1.190493
      4          6           0        1.534360   -0.053552    0.929769
      5          6           0        2.368809    0.492043   -0.241607
      6          6           0        3.559771   -0.456127   -0.660035
      7          6           0        3.073656   -1.627388   -1.567353
      8          6           0        4.202564   -1.105240    0.578205
      9          6           0        3.454607   -1.397048    1.664019
     10          6           0        2.068433   -0.953517    1.787427
     11          6           0        5.668344   -1.436111    0.457580
     12          6           0        6.515785   -0.162843    0.243257
     13          8           0        7.662488   -0.601507   -0.577565
     14          6           0        5.705294    0.947424   -0.457608
     15          6           0        4.661608    0.358482   -1.422385
     16          6           0        1.486451    0.902603   -1.462033
     17          6           0        0.198146    1.677137   -1.097819
     18          6           0       -0.740857    0.200357    2.273517
     19          6           0       -2.079840    0.935847    1.926833
     20          6           0       -1.819946    1.695742    0.580423
     21          6           0       -3.047519    2.146595   -0.266714
     22          6           0       -3.960837    1.093074   -0.963030
     23          6           0       -4.831681    0.161465   -0.092893
     24          6           0       -5.871569   -0.604671   -0.936179
     25          6           0       -6.835040   -1.510050   -0.130683
     26          6           0       -7.958012   -2.047707   -1.041622
     27          6           0       -6.103825   -2.676347    0.565909
     28          6           0       -3.900731    3.147825    0.550735
     29          1           0       -0.251343   -1.187120   -0.657057
     30          1           0       -1.893740   -0.926651   -0.074840
     31          1           0       -1.432334   -0.374070   -1.690870
     32          1           0        0.557446    1.707594    1.482626
     33          1           0        2.827412    1.427530    0.140410
     34          1           0        3.877534   -2.362312   -1.687741
     35          1           0        2.799758   -1.275619   -2.568237
     36          1           0        2.211863   -2.137384   -1.123703
     37          1           0        3.897123   -1.931514    2.502886
     38          1           0        1.504358   -1.281215    2.656610
     39          1           0        6.024145   -1.991675    1.331413
     40          1           0        5.850966   -2.071986   -0.421429
     41          1           0        6.900172    0.206391    1.204126
     42          1           0        8.331319    0.108233   -0.656328
     43          1           0        6.391847    1.621820   -0.987807
     44          1           0        5.201741    1.553155    0.309030
     45          1           0        4.195482    1.154894   -2.014212
     46          1           0        5.175457   -0.297937   -2.136861
     47          1           0        1.193634    0.006458   -2.017199
     48          1           0        2.086528    1.509522   -2.151452
     49          1           0        0.454721    2.659510   -0.670948
     50          1           0       -0.374409    1.868128   -2.016999
     51          1           0       -0.390678    0.434363    3.285294
     52          1           0       -0.868537   -0.888168    2.220424
     53          1           0       -2.898809    0.218228    1.833925
     54          1           0       -2.367387    1.638041    2.717687
     55          1           0       -1.351097    2.654039    0.867600
     56          1           0       -2.613720    2.724268   -1.101203
     57          1           0       -3.361918    0.478798   -1.644454
     58          1           0       -4.641610    1.671688   -1.608837
     59          1           0       -5.359410    0.743896    0.676038
     60          1           0       -4.196870   -0.556818    0.437960
     61          1           0       -6.471272    0.126690   -1.500198
     62          1           0       -5.351325   -1.221128   -1.687734
     63          1           0       -7.302788   -0.886903    0.650107
     64          1           0       -7.541013   -2.673272   -1.843005
     65          1           0       -8.516339   -1.228108   -1.511316
     66          1           0       -8.669457   -2.660715   -0.474250
     67          1           0       -5.597319   -3.310899   -0.174875
     68          1           0       -6.812582   -3.306932    1.117379
     69          1           0       -5.350625   -2.323000    1.279048
     70          1           0       -3.287916    3.986657    0.904272
     71          1           0       -4.711764    3.559558   -0.063167
     72          1           0       -4.354242    2.675672    1.429720
 ---------------------------------------------------------------------
 Rotational constants (GHZ):           0.4105204           0.0649380           0.0627774
 Leave Link  202 at Mon Jul 28 19:18:50 2025, MaxMem=  1073741824 cpu:               0.1 elap:               0.0
 (Enter /app/gaussian/g16/l301.exe)
 Standard basis: 6-31+G (6D, 7F)
 Ernie: Thresh=  0.10000D-02 Tol=  0.10000D-05 Strict=F.
 There are   452 symmetry adapted cartesian basis functions of A   symmetry.
 There are   452 symmetry adapted basis functions of A   symmetry.
   452 basis functions,   904 primitive gaussians,   452 cartesian basis functions
   107 alpha electrons      107 beta electrons
       nuclear repulsion energy      2772.5326734926 Hartrees.
 IExCor=  402 DFT=T Ex+Corr=B3LYP ExCW=0 ScaHFX=  0.200000
 ScaDFX=  0.800000  0.720000  1.000000  0.810000 ScalE2=  1.000000  1.000000
 IRadAn=      5 IRanWt=     -1 IRanGd=            0 ICorTp=0 IEmpDi=  4
 NAtoms=   72 NActive=   72 NUniq=   72 SFac= 1.00D+00 NAtFMM=   60 NAOKFM=T Big=T
 Integral buffers will be    131072 words long.
 Raffenetti 2 integral format.
 Two-electron integral symmetry is turned on.
 Leave Link  301 at Mon Jul 28 19:18:50 2025, MaxMem=  1073741824 cpu:               0.4 elap:               0.1
 (Enter /app/gaussian/g16/l302.exe)
 NPDir=0 NMtPBC=     1 NCelOv=     1 NCel=       1 NClECP=     1 NCelD=      1
         NCelK=      1 NCelE2=     1 NClLst=     1 CellRange=     0.0.
 One-electron integrals computed using PRISM.
 One-electron integral symmetry used in STVInt
 NBasis=   452 RedAO= T EigKep=  1.31D-06  NBF=   452
 NBsUse=   449 1.00D-06 EigRej=  7.64D-07 NBFU=   449
 Precomputing XC quadrature grid using
 IXCGrd= 4 IRadAn=           5 IRanWt=          -1 IRanGd=           0 AccXCQ= 0.00D+00.
 Generated NRdTot=       0 NPtTot=           0 NUsed=           0 NTot=          32
 NSgBfM=   438   438   438   438   438 MxSgAt=    72 MxSgA2=    72.
 Leave Link  302 at Mon Jul 28 19:18:51 2025, MaxMem=  1073741824 cpu:              10.6 elap:               1.3
 (Enter /app/gaussian/g16/l303.exe)
 DipDrv:  MaxL=1.
 Leave Link  303 at Mon Jul 28 19:18:52 2025, MaxMem=  1073741824 cpu:               0.5 elap:               0.1
 (Enter /app/gaussian/g16/l401.exe)
 Initial guess from the checkpoint file:  "/work/scr/Gau-256556.chk"
 B after Tr=    -0.000000   -0.000000    0.000000
         Rot=    1.000000   -0.000186   -0.000003   -0.000064 Ang=  -0.02 deg.
 Guess basis will be translated and rotated to current coordinates.
 JPrj=2 DoOrth=T DoCkMO=T.
 Generating alternative initial guess.
 ExpMin= 4.38D-02 ExpMax= 5.48D+03 ExpMxC= 8.25D+02 IAcc=3 IRadAn=         5 AccDes= 0.00D+00
 Harris functional with IExCor=  402 and IRadAn=       5 diagonalized for initial guess.
 HarFok:  IExCor=  402 AccDes= 0.00D+00 IRadAn=         5 IDoV= 1 UseB2=F ITyADJ=14
 ICtDFT=  3500011 ScaDFX=  1.000000  1.000000  1.000000  1.000000
 FoFCou: FMM=F IPFlag=           0 FMFlag=      100000 FMFlg1=        2001
         NFxFlg=           0 DoJE=T BraDBF=F KetDBF=T FulRan=T
         wScrn=  0.000000 ICntrl=       500 IOpCl=  0 I1Cent=   200000004 NGrid=           0
         NMat0=    1 NMatS0=      1 NMatT0=    0 NMatD0=    1 NMtDS0=    0 NMtDT0=    0
 Petite list used in FoFCou.
 Harris En= -1130.40105018230    
 Leave Link  401 at Mon Jul 28 19:19:01 2025, MaxMem=  1073741824 cpu:              76.5 elap:               9.6
 (Enter /app/gaussian/g16/l502.exe)
 Integral symmetry usage will be decided dynamically.
 Closed shell SCF:
 Using DIIS extrapolation, IDIIS=  1040.
 NGot=  1073741824 LenX=  1073322182 LenY=  1073117426
 Requested convergence on RMS density matrix=1.00D-08 within 128 cycles.
 Requested convergence on MAX density matrix=1.00D-06.
 Requested convergence on             energy=1.00D-06.
 No special actions if energy rises.
 Fock matrices will be formed incrementally for  20 cycles.

 Cycle   1  Pass 1  IDiag  1:
 FoFJK:  IHMeth= 1 ICntrl=       0 DoSepK=F KAlg= 0 I1Cent=           0 FoldK=F
 IRaf= 990000000 NMat=       1 IRICut=       1 DoRegI=T DoRafI=F ISym2E= 0 IDoP0=0 IntGTp=1.
 FoFCou: FMM=T IPFlag=           0 FMFlag=      100000 FMFlg1=        2001
         NFxFlg=           0 DoJE=F BraDBF=F KetDBF=F FulRan=T
         wScrn=  0.000000 ICntrl=         0 IOpCl=  0 I1Cent=           0 NGrid=           0
         NMat0=    1 NMatS0=      1 NMatT0=    0 NMatD0=    1 NMtDS0=    0 NMtDT0=    0
 Symmetry not used in FoFCou.
 FMM levels:  10  Number of levels for PrismC:   9
 E= -1130.32492939281    
 DIIS: error= 5.55D-04 at cycle   1 NSaved=   1.
 NSaved= 1 IEnMin= 1 EnMin= -1130.32492939281     IErMin= 1 ErrMin= 5.55D-04
 ErrMax= 5.55D-04  0.00D+00 EMaxC= 1.00D-01 BMatC= 9.65D-05 BMatP= 9.65D-05
 IDIUse=3 WtCom= 9.94D-01 WtEn= 5.55D-03
 Coeff-Com:  0.100D+01
 Coeff-En:   0.100D+01
 Coeff:      0.100D+01
 Gap=     0.456 Goal=   None    Shift=    0.000
 RMSDP=2.82D-04 MaxDP=1.62D-02              OVMax= 2.31D-03

 Cycle   2  Pass 1  IDiag  1:
 RMSU=  2.78D-04    CP:  1.00D+00
 E= -1130.32504667199     Delta-E=       -0.000117279187 Rises=F Damp=F
 DIIS: error= 3.84D-05 at cycle   2 NSaved=   2.
 NSaved= 2 IEnMin= 2 EnMin= -1130.32504667199     IErMin= 2 ErrMin= 3.84D-05
 ErrMax= 3.84D-05  0.00D+00 EMaxC= 1.00D-01 BMatC= 5.56D-07 BMatP= 9.65D-05
 IDIUse=1 WtCom= 1.00D+00 WtEn= 0.00D+00
 Coeff-Com: -0.286D-01 0.103D+01
 Coeff:     -0.286D-01 0.103D+01
 Gap=     0.172 Goal=   None    Shift=    0.000
 RMSDP=4.50D-05 MaxDP=5.62D-03 DE=-1.17D-04 OVMax= 2.65D-04

 Cycle   3  Pass 1  IDiag  1:
 RMSU=  4.11D-05    CP:  1.00D+00  1.01D+00
 E= -1130.32504726407     Delta-E=       -0.000000592080 Rises=F Damp=F
 DIIS: error= 2.30D-05 at cycle   3 NSaved=   3.
 NSaved= 3 IEnMin= 3 EnMin= -1130.32504726407     IErMin= 3 ErrMin= 2.30D-05
 ErrMax= 2.30D-05  0.00D+00 EMaxC= 1.00D-01 BMatC= 4.48D-07 BMatP= 5.56D-07
 IDIUse=1 WtCom= 1.00D+00 WtEn= 0.00D+00
 Coeff-Com: -0.180D-01 0.505D+00 0.513D+00
 Coeff:     -0.180D-01 0.505D+00 0.513D+00
 Gap=     0.172 Goal=   None    Shift=    0.000
 RMSDP=2.34D-05 MaxDP=2.05D-03 DE=-5.92D-07 OVMax= 2.02D-04

 Cycle   4  Pass 1  IDiag  1:
 RMSU=  1.42D-05    CP:  1.00D+00  1.04D+00  6.08D-01
 E= -1130.32504770904     Delta-E=       -0.000000444964 Rises=F Damp=F
 DIIS: error= 7.27D-06 at cycle   4 NSaved=   4.
 NSaved= 4 IEnMin= 4 EnMin= -1130.32504770904     IErMin= 4 ErrMin= 7.27D-06
 ErrMax= 7.27D-06  0.00D+00 EMaxC= 1.00D-01 BMatC= 3.34D-08 BMatP= 4.48D-07
 IDIUse=1 WtCom= 1.00D+00 WtEn= 0.00D+00
 Coeff-Com: -0.362D-02 0.711D-01 0.221D+00 0.712D+00
 Coeff:     -0.362D-02 0.711D-01 0.221D+00 0.712D+00
 Gap=     0.172 Goal=   None    Shift=    0.000
 RMSDP=8.53D-06 MaxDP=3.58D-04 DE=-4.45D-07 OVMax= 1.32D-04

 Cycle   5  Pass 1  IDiag  1:
 RMSU=  6.33D-06    CP:  1.00D+00  1.03D+00  6.48D-01  6.56D-01
 E= -1130.32504772746     Delta-E=       -0.000000018424 Rises=F Damp=F
 DIIS: error= 6.35D-06 at cycle   5 NSaved=   5.
 NSaved= 5 IEnMin= 5 EnMin= -1130.32504772746     IErMin= 5 ErrMin= 6.35D-06
 ErrMax= 6.35D-06  0.00D+00 EMaxC= 1.00D-01 BMatC= 1.68D-08 BMatP= 3.34D-08
 IDIUse=1 WtCom= 1.00D+00 WtEn= 0.00D+00
 Coeff-Com: -0.553D-03-0.568D-02 0.966D-01 0.489D+00 0.421D+00
 Coeff:     -0.553D-03-0.568D-02 0.966D-01 0.489D+00 0.421D+00
 Gap=     0.172 Goal=   None    Shift=    0.000
 RMSDP=3.85D-06 MaxDP=1.37D-04 DE=-1.84D-08 OVMax= 6.60D-05

 Cycle   6  Pass 1  IDiag  1:
 RMSU=  2.04D-06    CP:  1.00D+00  1.04D+00  6.45D-01  7.55D-01  5.52D-01
 E= -1130.32504774574     Delta-E=       -0.000000018276 Rises=F Damp=F
 DIIS: error= 4.56D-07 at cycle   6 NSaved=   6.
 NSaved= 6 IEnMin= 6 EnMin= -1130.32504774574     IErMin= 6 ErrMin= 4.56D-07
 ErrMax= 4.56D-07  0.00D+00 EMaxC= 1.00D-01 BMatC= 1.96D-10 BMatP= 1.68D-08
 IDIUse=1 WtCom= 1.00D+00 WtEn= 0.00D+00
 Coeff-Com:  0.125D-04-0.698D-02 0.233D-01 0.142D+00 0.165D+00 0.676D+00
 Coeff:      0.125D-04-0.698D-02 0.233D-01 0.142D+00 0.165D+00 0.676D+00
 Gap=     0.172 Goal=   None    Shift=    0.000
 RMSDP=1.16D-06 MaxDP=1.13D-04 DE=-1.83D-08 OVMax= 7.64D-06

 Cycle   7  Pass 1  IDiag  1:
 RMSU=  5.04D-07    CP:  1.00D+00  1.04D+00  6.55D-01  7.71D-01  5.38D-01
                    CP:  5.85D-01
 E= -1130.32504774596     Delta-E=       -0.000000000222 Rises=F Damp=F
 DIIS: error= 1.80D-07 at cycle   7 NSaved=   7.
 NSaved= 7 IEnMin= 7 EnMin= -1130.32504774596     IErMin= 7 ErrMin= 1.80D-07
 ErrMax= 1.80D-07  0.00D+00 EMaxC= 1.00D-01 BMatC= 3.96D-11 BMatP= 1.96D-10
 IDIUse=1 WtCom= 1.00D+00 WtEn= 0.00D+00
 Coeff-Com:  0.405D-04-0.369D-02 0.745D-02 0.514D-01 0.690D-01 0.389D+00
 Coeff-Com:  0.487D+00
 Coeff:      0.405D-04-0.369D-02 0.745D-02 0.514D-01 0.690D-01 0.389D+00
 Coeff:      0.487D+00
 Gap=     0.172 Goal=   None    Shift=    0.000
 RMSDP=3.11D-07 MaxDP=3.54D-05 DE=-2.22D-10 OVMax= 3.26D-06

 Cycle   8  Pass 1  IDiag  1:
 RMSU=  1.40D-07    CP:  1.00D+00  1.04D+00  6.54D-01  7.67D-01  5.40D-01
                    CP:  6.65D-01  6.72D-01
 E= -1130.32504774597     Delta-E=       -0.000000000010 Rises=F Damp=F
 DIIS: error= 8.22D-08 at cycle   8 NSaved=   8.
 NSaved= 8 IEnMin= 8 EnMin= -1130.32504774597     IErMin= 8 ErrMin= 8.22D-08
 ErrMax= 8.22D-08  0.00D+00 EMaxC= 1.00D-01 BMatC= 3.41D-12 BMatP= 3.96D-11
 IDIUse=1 WtCom= 1.00D+00 WtEn= 0.00D+00
 Coeff-Com:  0.212D-04-0.139D-02 0.185D-02 0.146D-01 0.224D-01 0.153D+00
 Coeff-Com:  0.277D+00 0.533D+00
 Coeff:      0.212D-04-0.139D-02 0.185D-02 0.146D-01 0.224D-01 0.153D+00
 Coeff:      0.277D+00 0.533D+00
 Gap=     0.172 Goal=   None    Shift=    0.000
 RMSDP=8.89D-08 MaxDP=7.72D-06 DE=-1.05D-11 OVMax= 1.11D-06

 Cycle   9  Pass 1  IDiag  1:
 RMSU=  5.33D-08    CP:  1.00D+00  1.04D+00  6.54D-01  7.66D-01  5.44D-01
                    CP:  6.74D-01  6.58D-01  7.11D-01
 E= -1130.32504774613     Delta-E=       -0.000000000161 Rises=F Damp=F
 DIIS: error= 2.94D-08 at cycle   9 NSaved=   9.
 NSaved= 9 IEnMin= 9 EnMin= -1130.32504774613     IErMin= 9 ErrMin= 2.94D-08
 ErrMax= 2.94D-08  0.00D+00 EMaxC= 1.00D-01 BMatC= 4.77D-13 BMatP= 3.41D-12
 IDIUse=1 WtCom= 1.00D+00 WtEn= 0.00D+00
 Coeff-Com:  0.532D-05-0.178D-03-0.177D-03-0.214D-03 0.143D-02 0.229D-01
 Coeff-Com:  0.800D-01 0.311D+00 0.585D+00
 Coeff:      0.532D-05-0.178D-03-0.177D-03-0.214D-03 0.143D-02 0.229D-01
 Coeff:      0.800D-01 0.311D+00 0.585D+00
 Gap=     0.172 Goal=   None    Shift=    0.000
 RMSDP=4.29D-08 MaxDP=4.39D-06 DE=-1.61D-10 OVMax= 3.31D-07

 Cycle  10  Pass 1  IDiag  1:
 RMSU=  1.96D-08    CP:  1.00D+00  1.04D+00  6.54D-01  7.66D-01  5.45D-01
                    CP:  6.76D-01  6.74D-01  7.13D-01  6.71D-01
 E= -1130.32504774594     Delta-E=        0.000000000196 Rises=F Damp=F
 DIIS: error= 3.99D-09 at cycle  10 NSaved=  10.
 NSaved=10 IEnMin= 9 EnMin= -1130.32504774613     IErMin=10 ErrMin= 3.99D-09
 ErrMax= 3.99D-09  0.00D+00 EMaxC= 1.00D-01 BMatC= 1.90D-14 BMatP= 4.77D-13
 IDIUse=1 WtCom= 1.00D+00 WtEn= 0.00D+00
 Coeff-Com:  0.563D-06 0.372D-04-0.225D-03-0.127D-02-0.117D-02-0.300D-02
 Coeff-Com:  0.111D-01 0.819D-01 0.244D+00 0.669D+00
 Coeff:      0.563D-06 0.372D-04-0.225D-03-0.127D-02-0.117D-02-0.300D-02
 Coeff:      0.111D-01 0.819D-01 0.244D+00 0.669D+00
 Gap=     0.172 Goal=   None    Shift=    0.000
 RMSDP=1.05D-08 MaxDP=6.53D-07 DE= 1.96D-10 OVMax= 4.71D-08

 Cycle  11  Pass 1  IDiag  1:
 RMSU=  4.77D-09    CP:  1.00D+00  1.04D+00  6.54D-01  7.66D-01  5.45D-01
                    CP:  6.75D-01  6.79D-01  7.43D-01  6.94D-01  7.24D-01
 E= -1130.32504774594     Delta-E=       -0.000000000005 Rises=F Damp=F
 DIIS: error= 2.47D-09 at cycle  11 NSaved=  11.
 NSaved=11 IEnMin= 9 EnMin= -1130.32504774613     IErMin=11 ErrMin= 2.47D-09
 ErrMax= 2.47D-09  0.00D+00 EMaxC= 1.00D-01 BMatC= 2.98D-15 BMatP= 1.90D-14
 IDIUse=1 WtCom= 1.00D+00 WtEn= 0.00D+00
 Coeff-Com: -0.183D-07 0.321D-04-0.113D-03-0.691D-03-0.732D-03-0.316D-02
 Coeff-Com:  0.119D-02 0.257D-01 0.993D-01 0.365D+00 0.514D+00
 Coeff:     -0.183D-07 0.321D-04-0.113D-03-0.691D-03-0.732D-03-0.316D-02
 Coeff:      0.119D-02 0.257D-01 0.993D-01 0.365D+00 0.514D+00
 Gap=     0.172 Goal=   None    Shift=    0.000
 RMSDP=1.74D-09 MaxDP=1.16D-07 DE=-5.00D-12 OVMax= 1.21D-08

 SCF Done:  E(RB3LYP) =  -1130.32504775     A.U. after   11 cycles
            NFock= 11  Conv=0.17D-08     -V/T= 2.0059
 KE= 1.123702758067D+03 PE=-8.164482463250D+03 EE= 3.137921983944D+03
 Leave Link  502 at Mon Jul 28 19:22:29 2025, MaxMem=  1073741824 cpu:            1655.3 elap:             207.6
 (Enter /app/gaussian/g16/l701.exe)
 ... and contract with generalized density number  0.
 Compute integral first derivatives.
 Leave Link  701 at Mon Jul 28 19:22:29 2025, MaxMem=  1073741824 cpu:               1.9 elap:               0.3
 (Enter /app/gaussian/g16/l702.exe)
 L702 exits ... SP integral derivatives will be done elsewhere.
 Leave Link  702 at Mon Jul 28 19:22:29 2025, MaxMem=  1073741824 cpu:               0.2 elap:               0.0
 (Enter /app/gaussian/g16/l703.exe)
 Integral derivatives from FoFJK, PRISM(SPDF).
 Compute integral first derivatives, UseDBF=F ICtDFT=           0.
 Calling FoFJK, ICntrl=      2127 FMM=T ISym2X=0 I1Cent= 0 IOpClX= 0 NMat=1 NMatS=1 NMatT=0.
 FoFJK:  IHMeth= 1 ICntrl=    2127 DoSepK=F KAlg= 0 I1Cent=           0 FoldK=F
 IRaf=         0 NMat=       1 IRICut=       1 DoRegI=T DoRafI=F ISym2E= 0 IDoP0=0 IntGTp=1.
 FoFCou: FMM=T IPFlag=           0 FMFlag=      100000 FMFlg1=        2001
         NFxFlg=           0 DoJE=F BraDBF=F KetDBF=F FulRan=T
         wScrn=  0.000000 ICntrl=      2127 IOpCl=  0 I1Cent=           0 NGrid=           0
         NMat0=    1 NMatS0=      1 NMatT0=    0 NMatD0=    1 NMtDS0=    0 NMtDT0=    0
 Symmetry not used in FoFCou.
 FMM levels:  10  Number of levels for PrismC:   9
 Leave Link  703 at Mon Jul 28 19:23:19 2025, MaxMem=  1073741824 cpu:             397.2 elap:              49.8
 (Enter /app/gaussian/g16/l716.exe)
 Dipole        =-1.96679824D-01 9.12168662D-01 1.40342954D-01
 ***** Axes restored to original set *****
 -------------------------------------------------------------------
 Center     Atomic                   Forces (Hartrees/Bohr)
 Number     Number              X              Y              Z
 -------------------------------------------------------------------
      1        6          -0.000010532   -0.000029857    0.000018203
      2        6           0.000006114    0.000074331   -0.000109673
      3        6           0.000051775   -0.000043047    0.000036792
      4        6          -0.000060532    0.000027945    0.000006617
      5        6           0.000052453    0.000047943    0.000065638
      6        6          -0.000050309    0.000017524   -0.000062807
      7        6          -0.000009637   -0.000016015    0.000022787
      8        6           0.000081585   -0.000073169    0.000024816
      9        6          -0.000061305    0.000019262   -0.000013645
     10        6           0.000061189   -0.000015637    0.000009889
     11        6          -0.000058592    0.000027957    0.000017330
     12        6          -0.000056806    0.000044034   -0.000090016
     13        8           0.000036647   -0.000069014    0.000042640
     14        6           0.000035596    0.000006912    0.000054035
     15        6           0.000032134   -0.000017321   -0.000024482
     16        6          -0.000004461   -0.000044057   -0.000011400
     17        6           0.000000401   -0.000022124    0.000024554
     18        6          -0.000030829    0.000010198   -0.000003332
     19        6           0.000042589   -0.000004378   -0.000069331
     20        6          -0.000078037    0.000004006    0.000076598
     21        6           0.000009942   -0.000032955   -0.000064084
     22        6           0.000006459    0.000029510    0.000037483
     23        6          -0.000012015    0.000014090   -0.000016250
     24        6           0.000013878   -0.000014683   -0.000002115
     25        6          -0.000010529    0.000013459   -0.000011389
     26        6           0.000028334   -0.000005909   -0.000012678
     27        6           0.000004757   -0.000005866    0.000010187
     28        6           0.000012963    0.000018061    0.000009281
     29        1           0.000014886    0.000001037    0.000009102
     30        1           0.000003383    0.000016976    0.000005880
     31        1           0.000009695    0.000009849    0.000012814
     32        1           0.000004203   -0.000004128    0.000007931
     33        1          -0.000001272    0.000001450   -0.000023629
     34        1          -0.000004500   -0.000001072   -0.000004186
     35        1           0.000001517    0.000005963    0.000001469
     36        1          -0.000005543   -0.000000287    0.000002418
     37        1           0.000012531    0.000000400    0.000004910
     38        1          -0.000009272   -0.000001940   -0.000010010
     39        1           0.000007272    0.000001815    0.000001770
     40        1          -0.000006003   -0.000008041    0.000011599
     41        1           0.000009392   -0.000017345    0.000013660
     42        1          -0.000014747    0.000049362   -0.000013014
     43        1          -0.000002539    0.000005191   -0.000030026
     44        1          -0.000004091   -0.000004935   -0.000013056
     45        1          -0.000001773    0.000004180    0.000006178
     46        1          -0.000007774    0.000009296    0.000005946
     47        1          -0.000010813    0.000007236    0.000015224
     48        1           0.000004092    0.000002430    0.000008668
     49        1          -0.000001047   -0.000000309   -0.000009379
     50        1          -0.000003458   -0.000005422   -0.000003896
     51        1           0.000003398   -0.000012070   -0.000005230
     52        1           0.000013396   -0.000014768   -0.000009199
     53        1           0.000001225    0.000008542    0.000012533
     54        1          -0.000016751    0.000001094    0.000015219
     55        1           0.000000890   -0.000008851   -0.000000602
     56        1          -0.000003906   -0.000004073   -0.000003006
     57        1          -0.000011036   -0.000002986   -0.000009191
     58        1          -0.000005688    0.000009303    0.000012268
     59        1           0.000011118   -0.000000837    0.000018183
     60        1           0.000008561   -0.000012822    0.000008628
     61        1          -0.000005740    0.000002852    0.000001683
     62        1           0.000001325    0.000000800    0.000001586
     63        1          -0.000006439   -0.000003091    0.000001836
     64        1          -0.000001311   -0.000001244    0.000003000
     65        1          -0.000006533    0.000002812    0.000001268
     66        1          -0.000003127   -0.000002440   -0.000000845
     67        1          -0.000004871   -0.000001238    0.000001592
     68        1          -0.000002014   -0.000006208   -0.000003379
     69        1          -0.000003324   -0.000002775    0.000003169
     70        1          -0.000000481    0.000008953   -0.000005834
     71        1          -0.000004976    0.000000358   -0.000002166
     72        1           0.000008911    0.000005784   -0.000007531
 -------------------------------------------------------------------
 Cartesian Forces:  Max     0.000109673 RMS     0.000025831
 Leave Link  716 at Mon Jul 28 19:23:19 2025, MaxMem=  1073741824 cpu:               0.2 elap:               0.0
 (Enter /app/gaussian/g16/l103.exe)

 GradGradGradGradGradGradGradGradGradGradGradGradGradGradGradGradGradGrad
 Berny optimization.
 Using GEDIIS/GDIIS optimizer.
 FormGI is forming the generalized inverse of G from B-inverse, IUseBI=4.
 Internal  Forces:  Max     0.000049904 RMS     0.000010368
 Search for a local minimum.
 Step number   9 out of a maximum of  432
 All quantities printed in internal units (Hartrees-Bohrs-Radians)
 RMS Force = .10368D-04 SwitMx=.10000D-02 MixMth= 2
 Mixed Optimization -- En-DIIS/RFO-DIIS
 Swapping is turned off.
 Update second derivatives using D2CorX and points    2    3    4    5    6
                                                      7    8    9
 DE= -1.66D-06 DEPred=-1.61D-06 R= 1.03D+00
 TightC=F SS=  1.41D+00  RLast= 2.48D-02 DXNew= 1.4270D+00 7.4291D-02
 Trust test= 1.03D+00 RLast= 2.48D-02 DXMaxT set to 8.49D-01
 ITU=  1  1  0  1  1  0  1  1  0
     Eigenvalues ---    0.00147   0.00232   0.00240   0.00242   0.00276
     Eigenvalues ---    0.00291   0.00298   0.00318   0.00344   0.00358
     Eigenvalues ---    0.00373   0.00437   0.00503   0.00546   0.00604
     Eigenvalues ---    0.00703   0.00799   0.00964   0.01056   0.01277
     Eigenvalues ---    0.01755   0.02022   0.02064   0.02142   0.02365
     Eigenvalues ---    0.02469   0.02568   0.02798   0.02861   0.03029
     Eigenvalues ---    0.03044   0.03237   0.03491   0.03518   0.03589
     Eigenvalues ---    0.03630   0.03768   0.03903   0.04048   0.04310
     Eigenvalues ---    0.04388   0.04436   0.04618   0.04683   0.04702
     Eigenvalues ---    0.04728   0.04748   0.04819   0.04845   0.04890
     Eigenvalues ---    0.04914   0.04920   0.04967   0.05085   0.05232
     Eigenvalues ---    0.05314   0.05352   0.05371   0.05406   0.05418
     Eigenvalues ---    0.05427   0.05462   0.05473   0.05478   0.05549
     Eigenvalues ---    0.05580   0.05587   0.05631   0.05703   0.05823
     Eigenvalues ---    0.05907   0.05945   0.06069   0.06369   0.06751
     Eigenvalues ---    0.06959   0.07147   0.07224   0.07579   0.07783
     Eigenvalues ---    0.08018   0.08074   0.08199   0.08235   0.08425
     Eigenvalues ---    0.08486   0.08716   0.09104   0.09125   0.09426
     Eigenvalues ---    0.09758   0.10204   0.10901   0.11123   0.12089
     Eigenvalues ---    0.12178   0.12488   0.12925   0.12992   0.14378
     Eigenvalues ---    0.14747   0.15335   0.15819   0.15927   0.15980
     Eigenvalues ---    0.15986   0.15992   0.15996   0.16000   0.16000
     Eigenvalues ---    0.16000   0.16000   0.16000   0.16000   0.16000
     Eigenvalues ---    0.16000   0.16012   0.16053   0.16120   0.16422
     Eigenvalues ---    0.16700   0.16909   0.17071   0.18386   0.18886
     Eigenvalues ---    0.19147   0.19314   0.20354   0.20994   0.21813
     Eigenvalues ---    0.21919   0.22366   0.22599   0.22792   0.22989
     Eigenvalues ---    0.24744   0.25595   0.25798   0.25869   0.26172
     Eigenvalues ---    0.26611   0.26942   0.27380   0.27762   0.27842
     Eigenvalues ---    0.28004   0.28148   0.28322   0.28452   0.28548
     Eigenvalues ---    0.28636   0.28702   0.28858   0.29006   0.29155
     Eigenvalues ---    0.29369   0.29448   0.29610   0.30042   0.31006
     Eigenvalues ---    0.31073   0.32789   0.33189   0.33263   0.33589
     Eigenvalues ---    0.33661   0.33745   0.33826   0.33890   0.33937
     Eigenvalues ---    0.33952   0.33964   0.33993   0.34004   0.34018
     Eigenvalues ---    0.34052   0.34061   0.34091   0.34101   0.34113
     Eigenvalues ---    0.34122   0.34152   0.34157   0.34180   0.34188
     Eigenvalues ---    0.34199   0.34201   0.34213   0.34214   0.34218
     Eigenvalues ---    0.34228   0.34245   0.34268   0.34273   0.34338
     Eigenvalues ---    0.34357   0.34402   0.34497   0.34640   0.34808
     Eigenvalues ---    0.35166   0.35261   0.35488   0.36167   0.37545
     Eigenvalues ---    0.38313   0.41385   0.52841   0.53262   0.54973
 En-DIIS/RFO-DIIS/Sim-DIIS IScMMF=       -3 using points:     9    8    7    6    5    4    3    2
 RFO step:  Lambda=-1.07024155D-06.
 NNeg= 0 NGDIIS= 8 SimSw=  2.50D-01 Rises=F DC= -1.66D-06 SmlDif=  1.00D-05
 NRisDI= 0 DoIntr=F SqrtH=F CThrHd= 10.0 CDAdj=  3.0
 RMS Error=  0.6616699018D-03 NUsed= 8 OKEnD=F EnDIS=F
 InvSVX:  RCond= 1.06D-05 Info=           0 Equed=N FErr=  3.20D-14 BErr=  7.72D-17
 DidBck=F Rises=F RFO-DIIS coefs:    1.03926    0.26305   -0.17536   -0.12521   -0.06659
                  RFO-DIIS coefs:    0.03672    0.02200    0.00613
 Iteration  1 RMS(Cart)=  0.00165790 RMS(Int)=  0.00000102
 Iteration  2 RMS(Cart)=  0.00000105 RMS(Int)=  0.00000079
 Iteration  3 RMS(Cart)=  0.00000000 RMS(Int)=  0.00000079
 ITry= 1 IFail=0 DXMaxC= 7.73D-03 DCOld= 1.00D+10 DXMaxT= 8.49D-01 DXLimC= 3.00D+00 Rises=F
 Variable       Old X    -DE/DX   Delta X   Delta X   Delta X     New X
                                 (Linear)    (Quad)   (Total)
    R1        2.93022  -0.00004   0.00005  -0.00021  -0.00016   2.93006
    R2        2.06975  -0.00002   0.00001  -0.00005  -0.00003   2.06972
    R3        2.06721   0.00001  -0.00003   0.00008   0.00005   2.06726
    R4        2.07030  -0.00001   0.00001  -0.00006  -0.00004   2.07026
    R5        2.95336  -0.00003  -0.00016   0.00000  -0.00016   2.95320
    R6        2.91248   0.00003  -0.00000   0.00007   0.00007   2.91255
    R7        2.95921  -0.00001   0.00008   0.00004   0.00011   2.95932
    R8        2.84638   0.00002   0.00003   0.00002   0.00005   2.84643
    R9        2.91741  -0.00002   0.00017  -0.00020  -0.00003   2.91738
   R10        2.09496   0.00001   0.00002  -0.00001   0.00001   2.09496
   R11        2.90680  -0.00001   0.00001  -0.00011  -0.00010   2.90670
   R12        2.55690  -0.00002  -0.00002  -0.00003  -0.00005   2.55685
   R13        2.98343   0.00005   0.00021   0.00002   0.00023   2.98366
   R14        2.94976   0.00003   0.00005   0.00006   0.00011   2.94987
   R15        2.09699  -0.00002   0.00009  -0.00011  -0.00002   2.09697
   R16        2.94663  -0.00002   0.00005  -0.00018  -0.00012   2.94651
   R17        2.90783  -0.00003  -0.00019   0.00002  -0.00018   2.90765
   R18        2.96320  -0.00002   0.00003  -0.00008  -0.00005   2.96315
   R19        2.07080   0.00001   0.00003   0.00000   0.00003   2.07083
   R20        2.07055  -0.00001   0.00004  -0.00004   0.00000   2.07055
   R21        2.06975  -0.00000   0.00003  -0.00003   0.00000   2.06975
   R22        2.55189   0.00000  -0.00006   0.00004  -0.00002   2.55187
   R23        2.84875   0.00005  -0.00008   0.00026   0.00018   2.84893
   R24        2.76018   0.00003   0.00016  -0.00004   0.00012   2.76030
   R25        2.05726  -0.00000   0.00003  -0.00003   0.00001   2.05727
   R26        2.05368  -0.00001   0.00002  -0.00003  -0.00001   2.05367
   R27        2.91857  -0.00003  -0.00011   0.00002  -0.00009   2.91849
   R28        2.06908   0.00000   0.00010  -0.00003   0.00007   2.06915
   R29        2.07900  -0.00001   0.00007  -0.00009  -0.00002   2.07897
   R30        2.79085  -0.00003  -0.00016   0.00013  -0.00003   2.79083
   R31        2.91582   0.00002  -0.00001   0.00002   0.00001   2.91582
   R32        2.07643  -0.00000   0.00011  -0.00010   0.00001   2.07644
   R33        1.84891  -0.00001  -0.00004   0.00001  -0.00003   1.84888
   R34        2.90731   0.00001   0.00013  -0.00008   0.00005   2.90736
   R35        2.07636  -0.00001   0.00002  -0.00006  -0.00004   2.07632
   R36        2.07716  -0.00001  -0.00001  -0.00002  -0.00004   2.07712
   R37        2.07165  -0.00000   0.00005  -0.00003   0.00003   2.07167
   R38        2.07475  -0.00000   0.00004  -0.00004   0.00000   2.07475
   R39        2.92284   0.00000   0.00004   0.00001   0.00004   2.92289
   R40        2.06753  -0.00002  -0.00004  -0.00001  -0.00005   2.06747
   R41        2.07332  -0.00000   0.00006  -0.00002   0.00003   2.07335
   R42        2.08137  -0.00001   0.00004  -0.00005  -0.00000   2.08136
   R43        2.07800   0.00000   0.00001  -0.00000   0.00001   2.07801
   R44        2.96031  -0.00001   0.00015  -0.00009   0.00006   2.96037
   R45        2.07102  -0.00001   0.00004  -0.00006  -0.00001   2.07101
   R46        2.07354   0.00000  -0.00002  -0.00000  -0.00002   2.07352
   R47        2.96260  -0.00000  -0.00002  -0.00006  -0.00009   2.96251
   R48        2.06519  -0.00001   0.00003  -0.00004  -0.00001   2.06518
   R49        2.07113   0.00001   0.00000   0.00002   0.00002   2.07116
   R50        2.94449   0.00001   0.00009  -0.00003   0.00006   2.94454
   R51        2.08780   0.00000   0.00008  -0.00004   0.00004   2.08784
   R52        2.94513  -0.00004  -0.00004  -0.00003  -0.00008   2.94505
   R53        2.92673   0.00001   0.00000  -0.00000  -0.00000   2.92673
   R54        2.08578   0.00001  -0.00001   0.00001   0.00000   2.08579
   R55        2.91741  -0.00000  -0.00002   0.00002   0.00000   2.91741
   R56        2.07042   0.00001   0.00006  -0.00004   0.00002   2.07044
   R57        2.08326  -0.00001   0.00005  -0.00005   0.00001   2.08326
   R58        2.91500   0.00001  -0.00001   0.00005   0.00004   2.91504
   R59        2.07782   0.00002  -0.00001   0.00003   0.00002   2.07784
   R60        2.07071  -0.00002   0.00003  -0.00007  -0.00004   2.07067
   R61        2.92561  -0.00001  -0.00009   0.00009  -0.00000   2.92560
   R62        2.08097  -0.00000   0.00004  -0.00004  -0.00001   2.08097
   R63        2.08342  -0.00000   0.00001  -0.00001  -0.00000   2.08342
   R64        2.91530   0.00002   0.00003   0.00004   0.00007   2.91536
   R65        2.91543  -0.00002   0.00001  -0.00006  -0.00005   2.91538
   R66        2.08448  -0.00000   0.00002  -0.00003  -0.00001   2.08447
   R67        2.07649  -0.00000   0.00002  -0.00002  -0.00000   2.07649
   R68        2.07361  -0.00000   0.00004  -0.00004  -0.00000   2.07361
   R69        2.07340  -0.00000   0.00002  -0.00001   0.00001   2.07341
   R70        2.07695   0.00000   0.00000  -0.00000  -0.00000   2.07695
   R71        2.07362  -0.00000   0.00004  -0.00003   0.00001   2.07363
   R72        2.07072   0.00000   0.00005  -0.00003   0.00001   2.07074
   R73        2.07368  -0.00000   0.00006  -0.00005   0.00001   2.07369
   R74        2.07369  -0.00000   0.00001  -0.00000   0.00001   2.07369
   R75        2.07114   0.00001   0.00002  -0.00000   0.00001   2.07115
    A1        1.93681   0.00001  -0.00001   0.00001  -0.00001   1.93680
    A2        1.95273  -0.00002   0.00010  -0.00018  -0.00008   1.95265
    A3        1.94103  -0.00000   0.00007  -0.00005   0.00002   1.94105
    A4        1.87074  -0.00000  -0.00011   0.00005  -0.00006   1.87068
    A5        1.87756   0.00001  -0.00007   0.00016   0.00009   1.87765
    A6        1.88153   0.00001   0.00001   0.00003   0.00004   1.88158
    A7        1.92620   0.00001  -0.00002   0.00024   0.00022   1.92642
    A8        1.93369   0.00002  -0.00002   0.00016   0.00014   1.93383
    A9        1.98014  -0.00001   0.00014  -0.00017  -0.00003   1.98011
   A10        1.86718  -0.00001   0.00010  -0.00000   0.00009   1.86727
   A11        1.72964  -0.00001  -0.00013  -0.00011  -0.00024   1.72940
   A12        2.01218  -0.00001  -0.00007  -0.00012  -0.00019   2.01199
   A13        1.99727   0.00001  -0.00009   0.00025   0.00016   1.99743
   A14        1.81706  -0.00001   0.00015  -0.00018  -0.00003   1.81703
   A15        1.82372   0.00000  -0.00008   0.00010   0.00002   1.82374
   A16        2.11167  -0.00001  -0.00009  -0.00001  -0.00010   2.11156
   A17        1.83245  -0.00001   0.00005  -0.00007  -0.00003   1.83242
   A18        1.85825   0.00001   0.00008  -0.00009  -0.00001   1.85824
   A19        2.00606  -0.00001  -0.00012  -0.00000  -0.00012   2.00594
   A20        2.15715   0.00000   0.00011  -0.00000   0.00011   2.15726
   A21        2.09960   0.00001  -0.00003   0.00009   0.00007   2.09966
   A22        1.98017  -0.00000   0.00007  -0.00005   0.00002   1.98019
   A23        1.96279   0.00001  -0.00004   0.00007   0.00003   1.96282
   A24        1.83491  -0.00000   0.00020  -0.00000   0.00019   1.83510
   A25        1.95753  -0.00001  -0.00005  -0.00015  -0.00020   1.95733
   A26        1.86062  -0.00000  -0.00006  -0.00000  -0.00007   1.86055
   A27        1.85567   0.00000  -0.00011   0.00017   0.00005   1.85573
   A28        1.94998   0.00001   0.00016  -0.00014   0.00002   1.95001
   A29        1.93392  -0.00001  -0.00003  -0.00004  -0.00006   1.93386
   A30        1.92509   0.00001  -0.00013   0.00007  -0.00006   1.92502
   A31        1.85626   0.00001  -0.00005   0.00014   0.00010   1.85636
   A32        1.90328  -0.00001   0.00010  -0.00014  -0.00004   1.90324
   A33        1.89319   0.00000  -0.00006   0.00012   0.00006   1.89325
   A34        1.91664   0.00000  -0.00009   0.00007  -0.00003   1.91662
   A35        1.94798   0.00000   0.00013  -0.00005   0.00008   1.94807
   A36        1.93838  -0.00000   0.00018  -0.00020  -0.00002   1.93837
   A37        1.87375  -0.00000  -0.00007   0.00006  -0.00001   1.87374
   A38        1.88539   0.00000  -0.00013   0.00011  -0.00001   1.88537
   A39        1.89950   0.00000  -0.00004   0.00002  -0.00002   1.89948
   A40        2.10229   0.00002   0.00002   0.00004   0.00006   2.10235
   A41        2.02014   0.00001   0.00007   0.00004   0.00012   2.02026
   A42        2.15971  -0.00002  -0.00011  -0.00007  -0.00018   2.15953
   A43        2.12700  -0.00001   0.00003  -0.00005  -0.00002   2.12698
   A44        2.09500   0.00002  -0.00008   0.00016   0.00008   2.09508
   A45        2.05979  -0.00001   0.00002  -0.00010  -0.00008   2.05971
   A46        2.12118  -0.00001  -0.00002  -0.00004  -0.00006   2.12112
   A47        2.09746   0.00001   0.00001   0.00009   0.00010   2.09756
   A48        2.05850  -0.00000   0.00001  -0.00004  -0.00003   2.05847
   A49        1.94301   0.00000  -0.00005   0.00017   0.00013   1.94314
   A50        1.94279  -0.00000  -0.00037   0.00017  -0.00020   1.94259
   A51        1.93071  -0.00000   0.00006  -0.00003   0.00003   1.93074
   A52        1.92918   0.00000   0.00019   0.00000   0.00019   1.92937
   A53        1.84891  -0.00001   0.00041  -0.00047  -0.00006   1.84885
   A54        1.86549   0.00000  -0.00020   0.00013  -0.00007   1.86541
   A55        1.83205   0.00001  -0.00041   0.00059   0.00019   1.83224
   A56        1.94769  -0.00001   0.00017  -0.00010   0.00008   1.94776
   A57        1.92584   0.00001   0.00008  -0.00007   0.00001   1.92585
   A58        1.94886  -0.00000  -0.00027   0.00005  -0.00021   1.94865
   A59        1.89042   0.00000   0.00015  -0.00012   0.00003   1.89045
   A60        1.91683  -0.00001   0.00024  -0.00031  -0.00008   1.91675
   A61        1.93912   0.00002  -0.00012   0.00030   0.00018   1.93930
   A62        1.94522   0.00001  -0.00012   0.00005  -0.00008   1.94514
   A63        1.90988  -0.00001   0.00000  -0.00020  -0.00020   1.90968
   A64        1.89691   0.00000   0.00002   0.00015   0.00017   1.89707
   A65        1.93504  -0.00000  -0.00007  -0.00015  -0.00023   1.93481
   A66        1.91511  -0.00001   0.00010   0.00003   0.00013   1.91524
   A67        1.85935   0.00001   0.00009   0.00013   0.00022   1.85957
   A68        1.95053  -0.00000   0.00021  -0.00015   0.00006   1.95059
   A69        1.91888   0.00000  -0.00011   0.00014   0.00003   1.91891
   A70        1.91203   0.00000   0.00013  -0.00001   0.00011   1.91215
   A71        1.92718  -0.00000  -0.00006  -0.00002  -0.00009   1.92709
   A72        1.89596  -0.00001  -0.00011  -0.00007  -0.00018   1.89577
   A73        1.85671   0.00000  -0.00006   0.00013   0.00007   1.85677
   A74        2.00252  -0.00001   0.00001   0.00008   0.00009   2.00261
   A75        1.90984  -0.00001   0.00033  -0.00032   0.00000   1.90984
   A76        1.90458   0.00001  -0.00015   0.00012  -0.00003   1.90455
   A77        1.88255   0.00001  -0.00002   0.00003   0.00001   1.88256
   A78        1.90342  -0.00000  -0.00010   0.00002  -0.00008   1.90334
   A79        1.85524   0.00000  -0.00008   0.00008  -0.00000   1.85524
   A80        1.93658   0.00000   0.00016   0.00007   0.00023   1.93680
   A81        1.90123  -0.00000  -0.00001  -0.00003  -0.00004   1.90119
   A82        1.93698   0.00001  -0.00005   0.00006   0.00000   1.93699
   A83        1.92183  -0.00001  -0.00003  -0.00008  -0.00011   1.92173
   A84        1.90057   0.00000  -0.00006  -0.00001  -0.00008   1.90050
   A85        1.86538   0.00000  -0.00002   0.00000  -0.00001   1.86537
   A86        1.81801   0.00001  -0.00016   0.00001  -0.00015   1.81786
   A87        1.95651  -0.00000  -0.00007  -0.00002  -0.00009   1.95642
   A88        1.92987   0.00000   0.00019  -0.00003   0.00015   1.93002
   A89        1.95754  -0.00001   0.00004  -0.00004  -0.00001   1.95753
   A90        1.93434  -0.00000   0.00010  -0.00012  -0.00002   1.93432
   A91        1.86886   0.00001  -0.00008   0.00019   0.00011   1.86897
   A92        1.85036  -0.00001  -0.00002  -0.00004  -0.00005   1.85031
   A93        1.92949   0.00001  -0.00002   0.00009   0.00007   1.92956
   A94        1.94482  -0.00001  -0.00006  -0.00010  -0.00016   1.94467
   A95        1.94927   0.00001   0.00009   0.00006   0.00014   1.94941
   A96        1.93121  -0.00000   0.00011  -0.00013  -0.00002   1.93119
   A97        1.86027  -0.00000  -0.00010   0.00012   0.00001   1.86028
   A98        1.80794  -0.00000   0.00007  -0.00010  -0.00003   1.80791
   A99        2.10770   0.00002   0.00009  -0.00002   0.00007   2.10778
   A100       1.80865  -0.00000  -0.00031   0.00027  -0.00004   1.80861
   A101       2.06755  -0.00002   0.00012  -0.00022  -0.00010   2.06744
   A102       1.84164   0.00002  -0.00008   0.00016   0.00008   1.84172
   A103       1.79741  -0.00000   0.00001   0.00002   0.00003   1.79744
   A104       2.10483   0.00005   0.00009   0.00006   0.00015   2.10497
   A105       1.91147  -0.00002   0.00001  -0.00016  -0.00015   1.91132
   A106       1.82642  -0.00001  -0.00007   0.00004  -0.00004   1.82639
   A107       1.92835  -0.00004  -0.00006  -0.00010  -0.00015   1.92820
   A108       1.81968  -0.00000   0.00005   0.00009   0.00014   1.81982
   A109       1.85170   0.00002  -0.00004   0.00011   0.00008   1.85177
   A110       2.07906   0.00002  -0.00026   0.00027   0.00000   2.07907
   A111       1.91403  -0.00001   0.00014  -0.00009   0.00006   1.91409
   A112       1.84297  -0.00001  -0.00001  -0.00009  -0.00011   1.84286
   A113       1.89713   0.00000   0.00017  -0.00011   0.00006   1.89719
   A114       1.87398  -0.00001  -0.00002  -0.00001  -0.00003   1.87395
   A115       1.84159   0.00001  -0.00001   0.00002   0.00001   1.84160
   A116       1.95180  -0.00000  -0.00005   0.00003  -0.00001   1.95179
   A117       1.92329  -0.00000  -0.00005   0.00003  -0.00002   1.92327
   A118       1.91965   0.00000   0.00004  -0.00008  -0.00003   1.91962
   A119       1.89847   0.00000  -0.00009   0.00004  -0.00005   1.89842
   A120       1.90691   0.00000   0.00006  -0.00002   0.00003   1.90694
   A121       1.86135   0.00000   0.00010  -0.00001   0.00009   1.86144
   A122       2.01037  -0.00002  -0.00017   0.00010  -0.00007   2.01031
   A123       1.89364   0.00000   0.00005  -0.00009  -0.00004   1.89360
   A124       1.90950   0.00000  -0.00002   0.00002  -0.00000   1.90950
   A125       1.89227   0.00001   0.00006   0.00005   0.00010   1.89238
   A126       1.89795   0.00000   0.00001  -0.00003  -0.00001   1.89793
   A127       1.85374  -0.00000   0.00010  -0.00006   0.00003   1.85378
   A128       1.92794   0.00001  -0.00013   0.00015   0.00002   1.92796
   A129       1.96282  -0.00002  -0.00006   0.00002  -0.00003   1.96279
   A130       1.87738   0.00000   0.00007  -0.00007  -0.00000   1.87738
   A131       1.92639   0.00001  -0.00002   0.00004   0.00002   1.92641
   A132       1.88197  -0.00000   0.00006  -0.00007  -0.00001   1.88196
   A133       1.88436   0.00000   0.00009  -0.00008   0.00001   1.88437
   A134       1.93137  -0.00000   0.00003  -0.00006  -0.00002   1.93134
   A135       1.94209  -0.00001   0.00003  -0.00008  -0.00005   1.94203
   A136       1.94054   0.00000  -0.00007   0.00010   0.00002   1.94056
   A137       1.88193   0.00000   0.00002  -0.00001   0.00001   1.88194
   A138       1.88087   0.00000   0.00002   0.00001   0.00003   1.88090
   A139       1.88465   0.00000  -0.00003   0.00005   0.00002   1.88466
   A140       1.92896   0.00000  -0.00000  -0.00002  -0.00002   1.92894
   A141       1.93394   0.00000  -0.00001   0.00002   0.00001   1.93395
   A142       1.95612  -0.00001   0.00005  -0.00005  -0.00000   1.95612
   A143       1.88033   0.00000   0.00003   0.00000   0.00003   1.88036
   A144       1.88394  -0.00000  -0.00002  -0.00001  -0.00002   1.88392
   A145       1.87780   0.00000  -0.00004   0.00005   0.00001   1.87781
   A146       1.93539  -0.00000  -0.00000  -0.00003  -0.00003   1.93536
   A147       1.93312  -0.00001  -0.00007   0.00002  -0.00004   1.93307
   A148       1.95277  -0.00000   0.00013  -0.00008   0.00004   1.95282
   A149       1.88196   0.00001  -0.00003   0.00006   0.00003   1.88199
   A150       1.87759   0.00000  -0.00003   0.00002  -0.00001   1.87758
   A151       1.88019   0.00000  -0.00001   0.00002   0.00001   1.88020
    D1       -0.74092  -0.00000  -0.00178   0.00027  -0.00151  -0.74242
    D2        1.32389   0.00001  -0.00168   0.00052  -0.00116   1.32273
    D3       -2.66389   0.00000  -0.00168   0.00036  -0.00132  -2.66522
    D4        1.34765  -0.00001  -0.00185   0.00021  -0.00164   1.34601
    D5       -2.87073  -0.00000  -0.00176   0.00046  -0.00130  -2.87202
    D6       -0.57533  -0.00000  -0.00175   0.00030  -0.00146  -0.57679
    D7       -2.83032  -0.00001  -0.00172   0.00009  -0.00163  -2.83195
    D8       -0.76550  -0.00000  -0.00163   0.00035  -0.00129  -0.76679
    D9        1.52989  -0.00001  -0.00163   0.00018  -0.00145   1.52845
   D10        1.08347   0.00001  -0.00007   0.00063   0.00055   1.08403
   D11       -1.25900   0.00002  -0.00001   0.00060   0.00059  -1.25841
   D12        3.07770   0.00002  -0.00011   0.00072   0.00061   3.07831
   D13       -1.02163  -0.00001  -0.00010   0.00029   0.00020  -1.02144
   D14        2.91908   0.00000  -0.00003   0.00026   0.00023   2.91931
   D15        0.97260  -0.00000  -0.00014   0.00039   0.00025   0.97285
   D16       -3.11750   0.00001   0.00001   0.00047   0.00048  -3.11703
   D17        0.82321   0.00002   0.00007   0.00044   0.00051   0.82372
   D18       -1.12327   0.00001  -0.00004   0.00057   0.00053  -1.12274
   D19       -1.06636  -0.00002  -0.00036  -0.00067  -0.00103  -1.06740
   D20        3.09838  -0.00001  -0.00042  -0.00059  -0.00101   3.09737
   D21        1.04927  -0.00001  -0.00037  -0.00060  -0.00097   1.04830
   D22        1.03396   0.00000  -0.00034  -0.00029  -0.00063   1.03334
   D23       -1.08447   0.00001  -0.00040  -0.00020  -0.00061  -1.08508
   D24       -3.13359   0.00001  -0.00035  -0.00022  -0.00057  -3.13416
   D25        2.93810  -0.00001  -0.00048  -0.00048  -0.00095   2.93714
   D26        0.81966  -0.00000  -0.00054  -0.00039  -0.00093   0.81873
   D27       -1.22946  -0.00001  -0.00048  -0.00041  -0.00089  -1.23035
   D28        1.29166  -0.00002  -0.00014  -0.00010  -0.00025   1.29141
   D29       -1.07496   0.00000  -0.00049   0.00036  -0.00012  -1.07509
   D30       -3.07189  -0.00000  -0.00031   0.00013  -0.00018  -3.07207
   D31       -0.74999  -0.00002  -0.00010  -0.00025  -0.00035  -0.75033
   D32       -3.11661  -0.00000  -0.00044   0.00021  -0.00023  -3.11683
   D33        1.16966  -0.00001  -0.00027  -0.00002  -0.00028   1.16937
   D34       -2.73538  -0.00001  -0.00010  -0.00014  -0.00024  -2.73562
   D35        1.18118   0.00001  -0.00045   0.00032  -0.00012   1.18106
   D36       -0.81574   0.00001  -0.00027   0.00010  -0.00018  -0.81592
   D37        0.87674   0.00001   0.00054  -0.00028   0.00026   0.87700
   D38       -2.48049   0.00001   0.00039   0.00018   0.00057  -2.47992
   D39        3.07272   0.00001   0.00057  -0.00029   0.00028   3.07300
   D40       -0.28452   0.00001   0.00043   0.00017   0.00060  -0.28392
   D41       -1.11236   0.00000   0.00065  -0.00048   0.00017  -1.11218
   D42        1.81360   0.00001   0.00051  -0.00002   0.00049   1.81408
   D43       -0.57320  -0.00001  -0.00004  -0.00047  -0.00050  -0.57370
   D44       -2.69358  -0.00000   0.00007  -0.00041  -0.00035  -2.69392
   D45        1.50562  -0.00001   0.00009  -0.00062  -0.00054   1.50509
   D46       -2.84964  -0.00002   0.00003  -0.00064  -0.00061  -2.85025
   D47        1.31317  -0.00001   0.00013  -0.00059  -0.00046   1.31271
   D48       -0.77082  -0.00001   0.00015  -0.00080  -0.00065  -0.77147
   D49        1.34810  -0.00001  -0.00004  -0.00046  -0.00050   1.34761
   D50       -0.77227   0.00000   0.00006  -0.00041  -0.00035  -0.77262
   D51       -2.85626  -0.00001   0.00008  -0.00062  -0.00053  -2.85679
   D52       -2.95111   0.00000  -0.00044   0.00046   0.00002  -2.95109
   D53       -0.70614  -0.00000  -0.00048   0.00027  -0.00022  -0.70636
   D54        1.30563   0.00000  -0.00052   0.00049  -0.00003   1.30560
   D55        0.39841   0.00000  -0.00032   0.00003  -0.00029   0.39812
   D56        2.64337  -0.00000  -0.00036  -0.00017  -0.00053   2.64284
   D57       -1.62804   0.00000  -0.00040   0.00006  -0.00034  -1.62838
   D58       -2.87509   0.00000   0.00034  -0.00037  -0.00003  -2.87512
   D59        0.14614   0.00000   0.00026  -0.00028  -0.00001   0.14613
   D60        0.03985   0.00000   0.00018   0.00010   0.00028   0.04013
   D61        3.06108  -0.00000   0.00010   0.00019   0.00030   3.06138
   D62        1.40603   0.00001   0.00017   0.00002   0.00018   1.40622
   D63       -0.66051  -0.00000   0.00014  -0.00005   0.00009  -0.66042
   D64       -2.75715  -0.00000   0.00031  -0.00021   0.00010  -2.75705
   D65       -0.84163   0.00000   0.00020   0.00010   0.00031  -0.84132
   D66       -2.90817  -0.00001   0.00017   0.00004   0.00021  -2.90796
   D67        1.27837  -0.00001   0.00035  -0.00012   0.00022   1.27860
   D68       -2.86591   0.00000   0.00040  -0.00001   0.00039  -2.86552
   D69        1.35073  -0.00000   0.00037  -0.00008   0.00030   1.35102
   D70       -0.74591  -0.00000   0.00055  -0.00024   0.00031  -0.74560
   D71        0.75128   0.00000  -0.00001  -0.00012  -0.00013   0.75115
   D72       -1.36704  -0.00000  -0.00024   0.00004  -0.00021  -1.36725
   D73        2.89283  -0.00000  -0.00025   0.00006  -0.00019   2.89264
   D74        3.00802   0.00000   0.00001  -0.00026  -0.00025   3.00777
   D75        0.88970   0.00000  -0.00022  -0.00011  -0.00033   0.88937
   D76       -1.13362  -0.00000  -0.00023  -0.00009  -0.00031  -1.13393
   D77       -1.24790  -0.00000  -0.00016  -0.00025  -0.00040  -1.24830
   D78        2.91697  -0.00000  -0.00039  -0.00009  -0.00048   2.91649
   D79        0.89365  -0.00001  -0.00040  -0.00007  -0.00047   0.89319
   D80       -2.96137   0.00000  -0.00078   0.00044  -0.00034  -2.96170
   D81        1.24599   0.00000  -0.00071   0.00035  -0.00036   1.24563
   D82       -0.87710   0.00000  -0.00088   0.00050  -0.00038  -0.87748
   D83       -0.84906  -0.00000  -0.00075   0.00041  -0.00034  -0.84940
   D84       -2.92490  -0.00000  -0.00068   0.00032  -0.00036  -2.92526
   D85        1.23521  -0.00000  -0.00085   0.00046  -0.00038   1.23482
   D86        1.18926  -0.00000  -0.00079   0.00055  -0.00024   1.18901
   D87       -0.88658  -0.00000  -0.00072   0.00045  -0.00027  -0.88684
   D88       -3.00966  -0.00000  -0.00089   0.00060  -0.00029  -3.00995
   D89        0.56368   0.00000   0.00014  -0.00002   0.00012   0.56380
   D90       -2.62525  -0.00000  -0.00022   0.00026   0.00003  -2.62521
   D91       -1.55890  -0.00000  -0.00001   0.00008   0.00007  -1.55883
   D92        1.53536  -0.00001  -0.00037   0.00036  -0.00002   1.53535
   D93        2.67924   0.00001  -0.00007   0.00011   0.00004   2.67928
   D94       -0.50968   0.00000  -0.00043   0.00039  -0.00004  -0.50973
   D95        1.55592  -0.00000   0.00029  -0.00014   0.00015   1.55607
   D96       -0.59059  -0.00000   0.00030  -0.00010   0.00020  -0.59039
   D97       -2.62506  -0.00001   0.00036  -0.00033   0.00003  -2.62503
   D98       -2.57975   0.00000   0.00047  -0.00036   0.00011  -2.57965
   D99        1.55692   0.00000   0.00048  -0.00033   0.00015   1.55708
   D100      -0.47755  -0.00001   0.00054  -0.00056  -0.00001  -0.47756
   D101      -0.56507   0.00001   0.00043  -0.00021   0.00023  -0.56485
   D102      -2.71158   0.00001   0.00045  -0.00017   0.00028  -2.71131
   D103       1.53713  -0.00000   0.00051  -0.00040   0.00011   1.53724
   D104      -0.14782  -0.00000  -0.00032   0.00015  -0.00017  -0.14799
   D105       3.05179  -0.00000   0.00018  -0.00014   0.00004   3.05183
   D106       3.04504  -0.00000   0.00007  -0.00015  -0.00009   3.04496
   D107      -0.03853  -0.00000   0.00056  -0.00044   0.00012  -0.03841
   D108       1.08979  -0.00000   0.00009  -0.00055  -0.00046   1.08934
   D109      -3.03241   0.00000   0.00003  -0.00030  -0.00027  -3.03268
   D110      -0.96104   0.00001  -0.00043  -0.00005  -0.00048  -0.96152
   D111      -2.10087  -0.00000  -0.00028  -0.00026  -0.00054  -2.10141
   D112       0.06011   0.00000  -0.00034  -0.00001  -0.00035   0.05976
   D113       2.13148   0.00001  -0.00080   0.00024  -0.00056   2.13092
   D114      -0.18935  -0.00001   0.00012  -0.00020  -0.00007  -0.18943
   D115       3.07001  -0.00000   0.00020  -0.00030  -0.00010   3.06991
   D116       2.89534  -0.00001  -0.00036   0.00009  -0.00027   2.89507
   D117      -0.12848  -0.00000  -0.00029  -0.00001  -0.00030  -0.12878
   D118      -2.59907   0.00001   0.00068   0.00015   0.00084  -2.59823
   D119      -0.48521   0.00001   0.00021   0.00053   0.00074  -0.48447
   D120       1.65102   0.00000   0.00069   0.00001   0.00070   1.65172
   D121       1.51544   0.00001   0.00106  -0.00019   0.00087   1.51631
   D122      -2.65390   0.00001   0.00058   0.00019   0.00077  -2.65312
   D123      -0.51767  -0.00000   0.00107  -0.00033   0.00074  -0.51693
   D124      -0.49928   0.00001   0.00098  -0.00008   0.00090  -0.49838
   D125       1.61457   0.00001   0.00050   0.00030   0.00080   1.61537
   D126      -2.53238  -0.00001   0.00099  -0.00022   0.00076  -2.53162
   D127      -2.99271   0.00002   0.00158   0.00235   0.00393  -2.98878
   D128       1.17740   0.00003   0.00177   0.00207   0.00384   1.18123
   D129      -0.93541   0.00004   0.00154   0.00251   0.00405  -0.93137
   D130      -0.55521  -0.00000   0.00002  -0.00052  -0.00049  -0.55570
   D131      -2.70176   0.00000   0.00020  -0.00021  -0.00002  -2.70178
   D132       1.55746  -0.00000   0.00008  -0.00034  -0.00027   1.55720
   D133       1.48920   0.00001  -0.00055   0.00020  -0.00035   1.48885
   D134      -0.65735   0.00001  -0.00037   0.00050   0.00013  -0.65722
   D135      -2.68132   0.00001  -0.00049   0.00037  -0.00012  -2.68144
   D136      -2.69660   0.00000  -0.00037  -0.00014  -0.00051  -2.69711
   D137       1.44003   0.00001  -0.00020   0.00017  -0.00003   1.44000
   D138      -0.58393   0.00000  -0.00032   0.00004  -0.00028  -0.58421
   D139       1.13982   0.00001  -0.00035   0.00037   0.00003   1.13985
   D140      -3.00158   0.00001  -0.00039   0.00043   0.00005  -3.00153
   D141      -0.97174   0.00001  -0.00056   0.00053  -0.00003  -0.97177
   D142      -3.01127  -0.00001  -0.00048   0.00004  -0.00044  -3.01171
   D143      -0.86948  -0.00001  -0.00052   0.00010  -0.00042  -0.86990
   D144       1.16035  -0.00001  -0.00069   0.00020  -0.00050   1.15986
   D145      -0.96219  -0.00000  -0.00035   0.00013  -0.00022  -0.96241
   D146       1.17960  -0.00000  -0.00039   0.00019  -0.00020   1.17939
   D147      -3.07375   0.00000  -0.00057   0.00029  -0.00028  -3.07403
   D148      -0.95067   0.00001   0.00045   0.00014   0.00059  -0.95008
   D149       1.15563   0.00000   0.00053   0.00008   0.00061   1.15624
   D150      -3.08758   0.00000   0.00045   0.00003   0.00049  -3.08709
   D151       1.18250   0.00000   0.00087  -0.00021   0.00066   1.18316
   D152      -2.99439  -0.00000   0.00095  -0.00026   0.00068  -2.99371
   D153      -0.95441  -0.00001   0.00087  -0.00031   0.00056  -0.95385
   D154      -3.09284   0.00001   0.00072  -0.00010   0.00062  -3.09222
   D155      -0.98655   0.00000   0.00079  -0.00015   0.00064  -0.98590
   D156       1.05343  -0.00000   0.00072  -0.00020   0.00052   1.05395
   D157       0.09210  -0.00000  -0.00009   0.00030   0.00021   0.09231
   D158       2.20763   0.00001  -0.00001   0.00040   0.00039   2.20802
   D159      -2.01020   0.00001  -0.00018   0.00053   0.00035  -2.00985
   D160       2.21180  -0.00001  -0.00026   0.00027   0.00000   2.21180
   D161      -1.95586   0.00000  -0.00018   0.00036   0.00018  -1.95568
   D162       0.10949   0.00000  -0.00035   0.00050   0.00014   0.10964
   D163      -1.98367  -0.00001  -0.00027   0.00039   0.00012  -1.98354
   D164       0.13186   0.00000  -0.00018   0.00049   0.00030   0.13216
   D165       2.19721   0.00001  -0.00036   0.00063   0.00027   2.19748
   D166       0.41823   0.00001   0.00011  -0.00002   0.00009   0.41832
   D167       2.80673   0.00001   0.00043  -0.00036   0.00007   2.80679
   D168      -1.47689   0.00001   0.00045  -0.00034   0.00011  -1.47678
   D169      -1.68450  -0.00000   0.00009  -0.00014  -0.00004  -1.68455
   D170       0.70399   0.00000   0.00041  -0.00047  -0.00007   0.70392
   D171       2.70356  -0.00000   0.00043  -0.00045  -0.00002   2.70353
   D172       2.52936  -0.00001   0.00009  -0.00023  -0.00014   2.52922
   D173      -1.36533  -0.00000   0.00041  -0.00057  -0.00016  -1.36550
   D174       0.63423  -0.00001   0.00043  -0.00055  -0.00012   0.63411
   D175       1.07052   0.00001   0.00093  -0.00040   0.00053   1.07105
   D176      -2.94605  -0.00002   0.00094  -0.00066   0.00028  -2.94577
   D177      -0.96740  -0.00001   0.00087  -0.00058   0.00029  -0.96711
   D178      -1.18655   0.00002   0.00056   0.00006   0.00062  -1.18593
   D179       1.08007  -0.00001   0.00057  -0.00020   0.00037   1.08044
   D180       3.05872   0.00000   0.00050  -0.00012   0.00038   3.05910
   D181       3.07325   0.00001   0.00059  -0.00004   0.00055   3.07380
   D182      -0.94332  -0.00001   0.00061  -0.00031   0.00030  -0.94302
   D183       1.03533  -0.00000   0.00053  -0.00022   0.00031   1.03564
   D184       1.18301   0.00000   0.00053   0.00020   0.00074   1.18374
   D185      -1.01734  -0.00001   0.00037   0.00022   0.00059  -1.01675
   D186      -2.99384  -0.00000   0.00032   0.00029   0.00061  -2.99323
   D187      -1.07619   0.00002   0.00049   0.00049   0.00098  -1.07521
   D188       3.00665   0.00001   0.00032   0.00051   0.00084   3.00748
   D189       1.03015   0.00001   0.00028   0.00058   0.00085   1.03100
   D190      -3.05883   0.00001   0.00053   0.00036   0.00089  -3.05794
   D191       1.02401   0.00000   0.00036   0.00038   0.00074   1.02475
   D192      -0.95249   0.00000   0.00031   0.00045   0.00076  -0.95173
   D193       0.94879  -0.00002  -0.00019  -0.00070  -0.00090   0.94789
   D194       3.03757  -0.00001  -0.00027  -0.00063  -0.00091   3.03666
   D195      -1.14754  -0.00002  -0.00024  -0.00065  -0.00089  -1.14843
   D196      -2.97560   0.00000  -0.00011  -0.00085  -0.00096  -2.97656
   D197      -0.88682   0.00001  -0.00019  -0.00078  -0.00097  -0.88779
   D198       1.21125   0.00000  -0.00016  -0.00080  -0.00095   1.21030
   D199      -1.01341  -0.00000  -0.00010  -0.00074  -0.00083  -1.01424
   D200       1.07537  -0.00000  -0.00017  -0.00066  -0.00084   1.07453
   D201      -3.10974  -0.00000  -0.00014  -0.00068  -0.00082  -3.11057
   D202       2.93731  -0.00001  -0.00074   0.00028  -0.00046   2.93685
   D203       0.82344  -0.00000  -0.00055   0.00018  -0.00038   0.82306
   D204      -1.22380  -0.00000  -0.00067   0.00022  -0.00045  -1.22425
   D205      -1.13752   0.00000  -0.00059   0.00027  -0.00032  -1.13784
   D206       3.03179   0.00000  -0.00040   0.00017  -0.00023   3.03155
   D207       0.98455   0.00000  -0.00051   0.00021  -0.00031   0.98424
   D208       0.84672   0.00001  -0.00053   0.00023  -0.00030   0.84642
   D209      -1.26715   0.00001  -0.00034   0.00013  -0.00021  -1.26737
   D210       2.96879   0.00001  -0.00045   0.00017  -0.00029   2.96851
   D211      -3.09055  -0.00000  -0.00113  -0.00022  -0.00135  -3.09190
   D212      -0.96643   0.00000  -0.00114  -0.00016  -0.00130  -0.96773
   D213       1.04884   0.00000  -0.00101  -0.00028  -0.00128   1.04756
   D214      -0.96236  -0.00001  -0.00129  -0.00013  -0.00142  -0.96378
   D215       1.16176  -0.00000  -0.00130  -0.00007  -0.00136   1.16040
   D216      -3.10615  -0.00000  -0.00117  -0.00018  -0.00135  -3.10750
   D217       1.06324  -0.00000  -0.00120  -0.00013  -0.00133   1.06191
   D218      -3.09583   0.00000  -0.00120  -0.00007  -0.00127  -3.09710
   D219      -1.08056   0.00000  -0.00107  -0.00019  -0.00125  -1.08181
   D220       2.98797   0.00000  -0.00001  -0.00019  -0.00020   2.98777
   D221      -1.13441   0.00001  -0.00018  -0.00001  -0.00018  -1.13459
   D222       0.93815   0.00000  -0.00005  -0.00014  -0.00019   0.93796
   D223       0.86311   0.00000  -0.00000  -0.00017  -0.00017   0.86294
   D224       3.02392   0.00001  -0.00017   0.00001  -0.00016   3.02377
   D225      -1.18670  -0.00000  -0.00004  -0.00013  -0.00017  -1.18687
   D226      -1.14527  -0.00000  -0.00015  -0.00011  -0.00026  -1.14553
   D227       1.01554   0.00000  -0.00032   0.00007  -0.00025   1.01530
   D228       3.08810  -0.00000  -0.00019  -0.00006  -0.00026   3.08784
   D229       1.08924  -0.00001  -0.00052   0.00007  -0.00045   1.08879
   D230      -1.00274  -0.00000  -0.00058   0.00018  -0.00041  -1.00315
   D231      -3.10432  -0.00000  -0.00051   0.00011  -0.00041  -3.10472
   D232      -1.09244   0.00000  -0.00033  -0.00010  -0.00043  -1.09287
   D233       3.09877   0.00001  -0.00040   0.00001  -0.00039   3.09838
   D234       0.99719   0.00000  -0.00033  -0.00006  -0.00039   0.99680
   D235       3.13623  -0.00000  -0.00047   0.00003  -0.00045   3.13578
   D236       1.04425   0.00000  -0.00054   0.00013  -0.00041   1.04384
   D237      -1.05733  -0.00000  -0.00047   0.00006  -0.00041  -1.05773
   D238      -1.04583  -0.00000  -0.00005   0.00022   0.00016  -1.04566
   D239      -3.12892  -0.00000  -0.00008   0.00021   0.00014  -3.12878
   D240       1.05641  -0.00001  -0.00005   0.00017   0.00012   1.05653
   D241       1.11584   0.00001  -0.00028   0.00046   0.00018   1.11602
   D242      -0.96725   0.00000  -0.00031   0.00046   0.00015  -0.96710
   D243      -3.06511   0.00000  -0.00028   0.00041   0.00014  -3.06497
   D244      -3.11429   0.00001  -0.00017   0.00035   0.00018  -3.11411
   D245       1.08580   0.00001  -0.00019   0.00034   0.00015   1.08595
   D246      -1.01206   0.00000  -0.00016   0.00030   0.00014  -1.01192
         Item               Value     Threshold  Converged?
 Maximum Force            0.000050     0.000450     YES
 RMS     Force            0.000010     0.000300     YES
 Maximum Displacement     0.007732     0.001800     NO 
 RMS     Displacement     0.001658     0.001200     NO 
 Predicted change in Energy=-5.133585D-07
 Lowest energy point so far.  Saving SCF results.
 GradGradGradGradGradGradGradGradGradGradGradGradGradGradGradGradGradGrad

 Leave Link  103 at Mon Jul 28 19:23:19 2025, MaxMem=  1073741824 cpu:               1.2 elap:               0.2
 (Enter /app/gaussian/g16/l202.exe)
 Stoichiometry    C27H44O
 Framework group  C1[X(C27H44O)]
 Deg. of freedom   210
 Full point group                 C1      NOp   1
 RotChk:  IX=0 Diff= 2.00D-03
 Largest Abelian subgroup         C1      NOp   1
 Largest concise Abelian subgroup C1      NOp   1
                         Standard orientation:                         
 ---------------------------------------------------------------------
 Center     Atomic      Atomic             Coordinates (Angstroms)
 Number     Number       Type             X           Y           Z
 ---------------------------------------------------------------------
      1          6           0       -1.084595   -0.476761   -0.658267
      2          6           0       -0.645981    0.891003   -0.074353
      3          6           0        0.247383    0.681302    1.190625
      4          6           0        1.534819   -0.055611    0.929275
      5          6           0        2.369372    0.492099   -0.240970
      6          6           0        3.560910   -0.455022   -0.660590
      7          6           0        3.075598   -1.624858   -1.570063
      8          6           0        4.203428   -1.105845    0.576778
      9          6           0        3.455210   -1.399815    1.661817
     10          6           0        2.068783   -0.956949    1.785519
     11          6           0        5.669474   -1.436038    0.456357
     12          6           0        6.516650   -0.162348    0.243830
     13          8           0        7.663274   -0.599284   -0.577997
     14          6           0        5.705943    0.948941   -0.455171
     15          6           0        4.662636    0.361310   -1.421202
     16          6           0        1.487240    0.903937   -1.461205
     17          6           0        0.198225    1.677110   -1.096516
     18          6           0       -0.740717    0.195690    2.272839
     19          6           0       -2.079631    0.931880    1.927237
     20          6           0       -1.819577    1.693669    0.581982
     21          6           0       -3.047174    2.145972   -0.264403
     22          6           0       -3.961315    1.093788   -0.961569
     23          6           0       -4.833242    0.162456   -0.092218
     24          6           0       -5.874109   -0.601668   -0.936164
     25          6           0       -6.837386   -1.508024   -0.131537
     26          6           0       -7.961503   -2.043343   -1.042499
     27          6           0       -6.106187   -2.676004    0.562186
     28          6           0       -3.899710    3.146541    0.554559
     29          1           0       -0.251192   -1.187398   -0.660539
     30          1           0       -1.892834   -0.928428   -0.075626
     31          1           0       -1.433887   -0.373066   -1.691437
     32          1           0        0.557149    1.704463    1.484216
     33          1           0        2.827565    1.427211    0.142426
     34          1           0        3.879930   -2.359112   -1.691649
     35          1           0        2.801608   -1.271508   -2.570366
     36          1           0        2.214052   -2.136150   -1.127427
     37          1           0        3.897601   -1.935429    2.500023
     38          1           0        1.504516   -1.286451    2.653887
     39          1           0        6.024899   -1.992640    1.329727
     40          1           0        5.852717   -2.070847   -0.423278
     41          1           0        6.901142    0.205505    1.205193
     42          1           0        8.333603    0.109440   -0.652880
     43          1           0        6.392507    1.624098   -0.984342
     44          1           0        5.202181    1.553362    0.312336
     45          1           0        4.196412    1.158665   -2.011706
     46          1           0        5.177041   -0.293595   -2.136668
     47          1           0        1.195313    0.008469   -2.017878
     48          1           0        2.087235    1.512339   -2.149414
     49          1           0        0.454046    2.659256   -0.668675
     50          1           0       -0.374178    1.868587   -2.015698
     51          1           0       -0.390512    0.428164    3.284951
     52          1           0       -0.868532   -0.892722    2.218016
     53          1           0       -2.898776    0.214585    1.833441
     54          1           0       -2.366869    1.633019    2.719157
     55          1           0       -1.350464    2.651463    0.870481
     56          1           0       -2.613289    2.724449   -1.098293
     57          1           0       -3.362902    0.479427   -1.643379
     58          1           0       -4.641431    1.673566   -1.607029
     59          1           0       -5.360287    0.744876    0.677207
     60          1           0       -4.199257   -0.557033    0.437941
     61          1           0       -6.473801    0.131029   -1.498450
     62          1           0       -5.354686   -1.217060   -1.689158
     63          1           0       -7.304093   -0.886089    0.650838
     64          1           0       -7.545513   -2.667259   -1.845689
     65          1           0       -8.520017   -1.222504   -1.509798
     66          1           0       -8.672574   -2.657363   -0.475745
     67          1           0       -5.600549   -3.309316   -0.180248
     68          1           0       -6.814802   -3.307339    1.112987
     69          1           0       -5.352243   -2.324405    1.275414
     70          1           0       -3.286210    3.984194    0.909713
     71          1           0       -4.710188    3.560054   -0.058886
     72          1           0       -4.353903    2.673303    1.432616
 ---------------------------------------------------------------------
 Rotational constants (GHZ):           0.4108445           0.0649108           0.0627556
 Leave Link  202 at Mon Jul 28 19:23:19 2025, MaxMem=  1073741824 cpu:               0.1 elap:               0.0
 (Enter /app/gaussian/g16/l301.exe)
 Standard basis: 6-31+G (6D, 7F)
 Ernie: Thresh=  0.10000D-02 Tol=  0.10000D-05 Strict=F.
 There are   452 symmetry adapted cartesian basis functions of A   symmetry.
 There are   452 symmetry adapted basis functions of A   symmetry.
   452 basis functions,   904 primitive gaussians,   452 cartesian basis functions
   107 alpha electrons      107 beta electrons
       nuclear repulsion energy      2772.4169797137 Hartrees.
 IExCor=  402 DFT=T Ex+Corr=B3LYP ExCW=0 ScaHFX=  0.200000
 ScaDFX=  0.800000  0.720000  1.000000  0.810000 ScalE2=  1.000000  1.000000
 IRadAn=      5 IRanWt=     -1 IRanGd=            0 ICorTp=0 IEmpDi=  4
 NAtoms=   72 NActive=   72 NUniq=   72 SFac= 1.00D+00 NAtFMM=   60 NAOKFM=T Big=T
 Integral buffers will be    131072 words long.
 Raffenetti 2 integral format.
 Two-electron integral symmetry is turned on.
 Leave Link  301 at Mon Jul 28 19:23:19 2025, MaxMem=  1073741824 cpu:               0.4 elap:               0.1
 (Enter /app/gaussian/g16/l302.exe)
 NPDir=0 NMtPBC=     1 NCelOv=     1 NCel=       1 NClECP=     1 NCelD=      1
         NCelK=      1 NCelE2=     1 NClLst=     1 CellRange=     0.0.
 One-electron integrals computed using PRISM.
 One-electron integral symmetry used in STVInt
 NBasis=   452 RedAO= T EigKep=  1.31D-06  NBF=   452
 NBsUse=   449 1.00D-06 EigRej=  7.64D-07 NBFU=   449
 Precomputing XC quadrature grid using
 IXCGrd= 4 IRadAn=           5 IRanWt=          -1 IRanGd=           0 AccXCQ= 0.00D+00.
 Generated NRdTot=       0 NPtTot=           0 NUsed=           0 NTot=          32
 NSgBfM=   438   438   438   438   438 MxSgAt=    72 MxSgA2=    72.
 Leave Link  302 at Mon Jul 28 19:23:21 2025, MaxMem=  1073741824 cpu:              10.5 elap:               1.3
 (Enter /app/gaussian/g16/l303.exe)
 DipDrv:  MaxL=1.
 Leave Link  303 at Mon Jul 28 19:23:21 2025, MaxMem=  1073741824 cpu:               0.4 elap:               0.1
 (Enter /app/gaussian/g16/l401.exe)
 Initial guess from the checkpoint file:  "/work/scr/Gau-256556.chk"
 B after Tr=     0.000000   -0.000000   -0.000000
         Rot=    1.000000   -0.000699   -0.000005    0.000033 Ang=  -0.08 deg.
 Guess basis will be translated and rotated to current coordinates.
 JPrj=2 DoOrth=T DoCkMO=T.
 Leave Link  401 at Mon Jul 28 19:23:21 2025, MaxMem=  1073741824 cpu:               3.5 elap:               0.5
 (Enter /app/gaussian/g16/l502.exe)
 Integral symmetry usage will be decided dynamically.
 Closed shell SCF:
 Using DIIS extrapolation, IDIIS=  1040.
 NGot=  1073741824 LenX=  1073322182 LenY=  1073117426
 Requested convergence on RMS density matrix=1.00D-08 within 128 cycles.
 Requested convergence on MAX density matrix=1.00D-06.
 Requested convergence on             energy=1.00D-06.
 No special actions if energy rises.
 Fock matrices will be formed incrementally for  20 cycles.

 Cycle   1  Pass 1  IDiag  1:
 FoFJK:  IHMeth= 1 ICntrl=       0 DoSepK=F KAlg= 0 I1Cent=           0 FoldK=F
 IRaf= 990000000 NMat=       1 IRICut=       1 DoRegI=T DoRafI=F ISym2E= 0 IDoP0=0 IntGTp=1.
 FoFCou: FMM=T IPFlag=           0 FMFlag=      100000 FMFlg1=        2001
         NFxFlg=           0 DoJE=F BraDBF=F KetDBF=F FulRan=T
         wScrn=  0.000000 ICntrl=         0 IOpCl=  0 I1Cent=           0 NGrid=           0
         NMat0=    1 NMatS0=      1 NMatT0=    0 NMatD0=    1 NMtDS0=    0 NMtDT0=    0
 Symmetry not used in FoFCou.
 FMM levels:  10  Number of levels for PrismC:   9
 E= -1130.32503651184    
 DIIS: error= 2.47D-04 at cycle   1 NSaved=   1.
 NSaved= 1 IEnMin= 1 EnMin= -1130.32503651184     IErMin= 1 ErrMin= 2.47D-04
 ErrMax= 2.47D-04  0.00D+00 EMaxC= 1.00D-01 BMatC= 1.52D-05 BMatP= 1.52D-05
 IDIUse=3 WtCom= 9.98D-01 WtEn= 2.47D-03
 Coeff-Com:  0.100D+01
 Coeff-En:   0.100D+01
 Coeff:      0.100D+01
 Gap=     0.456 Goal=   None    Shift=    0.000
 RMSDP=1.67D-04 MaxDP=2.68D-02              OVMax= 7.43D-04

 Cycle   2  Pass 1  IDiag  1:
 RMSU=  1.52D-04    CP:  9.99D-01
 E= -1130.32504856665     Delta-E=       -0.000012054810 Rises=F Damp=F
 DIIS: error= 7.31D-06 at cycle   2 NSaved=   2.
 NSaved= 2 IEnMin= 2 EnMin= -1130.32504856665     IErMin= 2 ErrMin= 7.31D-06
 ErrMax= 7.31D-06  0.00D+00 EMaxC= 1.00D-01 BMatC= 7.06D-08 BMatP= 1.52D-05
 IDIUse=1 WtCom= 1.00D+00 WtEn= 0.00D+00
 Coeff-Com: -0.113D-01 0.101D+01
 Coeff:     -0.113D-01 0.101D+01
 Gap=     0.172 Goal=   None    Shift=    0.000
 RMSDP=3.10D-05 MaxDP=1.97D-03 DE=-1.21D-05 OVMax= 2.25D-04

 Cycle   3  Pass 1  IDiag  1:
 RMSU=  2.75D-05    CP:  9.99D-01  1.01D+00
 E= -1130.32504855701     Delta-E=        0.000000009637 Rises=F Damp=F
 DIIS: error= 1.08D-05 at cycle   3 NSaved=   3.
 NSaved= 3 IEnMin= 2 EnMin= -1130.32504856665     IErMin= 2 ErrMin= 7.31D-06
 ErrMax= 1.08D-05  0.00D+00 EMaxC= 1.00D-01 BMatC= 1.10D-07 BMatP= 7.06D-08
 IDIUse=1 WtCom= 1.00D+00 WtEn= 0.00D+00
 Coeff-Com: -0.101D-01 0.575D+00 0.435D+00
 Coeff:     -0.101D-01 0.575D+00 0.435D+00
 Gap=     0.172 Goal=   None    Shift=    0.000
 RMSDP=1.61D-05 MaxDP=1.20D-03 DE= 9.64D-09 OVMax= 2.13D-04

 Cycle   4  Pass 1  IDiag  1:
 RMSU=  9.51D-06    CP:  9.99D-01  1.03D+00  5.87D-01
 E= -1130.32504867087     Delta-E=       -0.000000113859 Rises=F Damp=F
 DIIS: error= 4.03D-06 at cycle   4 NSaved=   4.
 NSaved= 4 IEnMin= 4 EnMin= -1130.32504867087     IErMin= 4 ErrMin= 4.03D-06
 ErrMax= 4.03D-06  0.00D+00 EMaxC= 1.00D-01 BMatC= 9.23D-09 BMatP= 7.06D-08
 IDIUse=1 WtCom= 1.00D+00 WtEn= 0.00D+00
 Coeff-Com: -0.386D-02 0.177D+00 0.243D+00 0.583D+00
 Coeff:     -0.386D-02 0.177D+00 0.243D+00 0.583D+00
 Gap=     0.172 Goal=   None    Shift=    0.000
 RMSDP=4.18D-06 MaxDP=1.96D-04 DE=-1.14D-07 OVMax= 7.55D-05

 Cycle   5  Pass 1  IDiag  1:
 RMSU=  2.74D-06    CP:  9.99D-01  1.02D+00  5.91D-01  6.79D-01
 E= -1130.32504867953     Delta-E=       -0.000000008660 Rises=F Damp=F
 DIIS: error= 1.60D-06 at cycle   5 NSaved=   5.
 NSaved= 5 IEnMin= 5 EnMin= -1130.32504867953     IErMin= 5 ErrMin= 1.60D-06
 ErrMax= 1.60D-06  0.00D+00 EMaxC= 1.00D-01 BMatC= 1.85D-09 BMatP= 9.23D-09
 IDIUse=1 WtCom= 1.00D+00 WtEn= 0.00D+00
 Coeff-Com: -0.346D-03-0.691D-02 0.642D-01 0.361D+00 0.582D+00
 Coeff:     -0.346D-03-0.691D-02 0.642D-01 0.361D+00 0.582D+00
 Gap=     0.172 Goal=   None    Shift=    0.000
 RMSDP=1.36D-06 MaxDP=6.24D-05 DE=-8.66D-09 OVMax= 1.95D-05

 Cycle   6  Pass 1  IDiag  1:
 RMSU=  9.70D-07    CP:  9.99D-01  1.02D+00  6.06D-01  6.96D-01  6.98D-01
 E= -1130.32504868143     Delta-E=       -0.000000001903 Rises=F Damp=F
 DIIS: error= 1.73D-07 at cycle   6 NSaved=   6.
 NSaved= 6 IEnMin= 6 EnMin= -1130.32504868143     IErMin= 6 ErrMin= 1.73D-07
 ErrMax= 1.73D-07  0.00D+00 EMaxC= 1.00D-01 BMatC= 4.21D-11 BMatP= 1.85D-09
 IDIUse=1 WtCom= 1.00D+00 WtEn= 0.00D+00
 Coeff-Com: -0.634D-05-0.103D-01 0.187D-01 0.138D+00 0.258D+00 0.596D+00
 Coeff:     -0.634D-05-0.103D-01 0.187D-01 0.138D+00 0.258D+00 0.596D+00
 Gap=     0.172 Goal=   None    Shift=    0.000
 RMSDP=6.82D-07 MaxDP=5.25D-05 DE=-1.90D-09 OVMax= 2.38D-06

 Cycle   7  Pass 1  IDiag  1:
 RMSU=  3.04D-07    CP:  9.99D-01  1.02D+00  6.14D-01  7.29D-01  7.03D-01
                    CP:  5.88D-01
 E= -1130.32504868159     Delta-E=       -0.000000000158 Rises=F Damp=F
 DIIS: error= 1.26D-07 at cycle   7 NSaved=   7.
 NSaved= 7 IEnMin= 7 EnMin= -1130.32504868159     IErMin= 7 ErrMin= 1.26D-07
 ErrMax= 1.26D-07  0.00D+00 EMaxC= 1.00D-01 BMatC= 8.12D-12 BMatP= 4.21D-11
 IDIUse=1 WtCom= 1.00D+00 WtEn= 0.00D+00
 Coeff-Com:  0.268D-04-0.556D-02 0.551D-02 0.499D-01 0.101D+00 0.348D+00
 Coeff-Com:  0.501D+00
 Coeff:      0.268D-04-0.556D-02 0.551D-02 0.499D-01 0.101D+00 0.348D+00
 Coeff:      0.501D+00
 Gap=     0.172 Goal=   None    Shift=    0.000
 RMSDP=1.30D-07 MaxDP=7.61D-06 DE=-1.58D-10 OVMax= 1.16D-06

 Cycle   8  Pass 1  IDiag  1:
 RMSU=  7.90D-08    CP:  9.99D-01  1.02D+00  6.14D-01  7.28D-01  6.90D-01
                    CP:  6.30D-01  7.46D-01
 E= -1130.32504868153     Delta-E=        0.000000000059 Rises=F Damp=F
 DIIS: error= 3.78D-08 at cycle   8 NSaved=   8.
 NSaved= 8 IEnMin= 7 EnMin= -1130.32504868159     IErMin= 8 ErrMin= 3.78D-08
 ErrMax= 3.78D-08  0.00D+00 EMaxC= 1.00D-01 BMatC= 6.80D-13 BMatP= 8.12D-12
 IDIUse=1 WtCom= 1.00D+00 WtEn= 0.00D+00
 Coeff-Com:  0.146D-04-0.162D-02 0.546D-03 0.825D-02 0.199D-01 0.110D+00
 Coeff-Com:  0.268D+00 0.595D+00
 Coeff:      0.146D-04-0.162D-02 0.546D-03 0.825D-02 0.199D-01 0.110D+00
 Coeff:      0.268D+00 0.595D+00
 Gap=     0.172 Goal=   None    Shift=    0.000
 RMSDP=5.48D-08 MaxDP=4.71D-06 DE= 5.91D-11 OVMax= 3.58D-07

 Cycle   9  Pass 1  IDiag  1:
 RMSU=  3.45D-08    CP:  9.99D-01  1.02D+00  6.14D-01  7.27D-01  6.93D-01
                    CP:  6.57D-01  6.98D-01  8.70D-01
 E= -1130.32504868148     Delta-E=        0.000000000052 Rises=F Damp=F
 DIIS: error= 1.48D-08 at cycle   9 NSaved=   9.
 NSaved= 9 IEnMin= 7 EnMin= -1130.32504868159     IErMin= 9 ErrMin= 1.48D-08
 ErrMax= 1.48D-08  0.00D+00 EMaxC= 1.00D-01 BMatC= 9.39D-14 BMatP= 6.80D-13
 IDIUse=1 WtCom= 1.00D+00 WtEn= 0.00D+00
 Coeff-Com:  0.573D-05-0.373D-03-0.218D-03-0.326D-03 0.131D-02 0.273D-01
 Coeff-Com:  0.102D+00 0.339D+00 0.531D+00
 Coeff:      0.573D-05-0.373D-03-0.218D-03-0.326D-03 0.131D-02 0.273D-01
 Coeff:      0.102D+00 0.339D+00 0.531D+00
 Gap=     0.172 Goal=   None    Shift=    0.000
 RMSDP=2.11D-08 MaxDP=1.64D-06 DE= 5.23D-11 OVMax= 1.08D-07

 Cycle  10  Pass 1  IDiag  1:
 RMSU=  9.32D-09    CP:  9.99D-01  1.02D+00  6.14D-01  7.27D-01  6.94D-01
                    CP:  6.54D-01  7.25D-01  8.42D-01  6.98D-01
 E= -1130.32504868169     Delta-E=       -0.000000000210 Rises=F Damp=F
 DIIS: error= 3.25D-09 at cycle  10 NSaved=  10.
 NSaved=10 IEnMin=10 EnMin= -1130.32504868169     IErMin=10 ErrMin= 3.25D-09
 ErrMax= 3.25D-09  0.00D+00 EMaxC= 1.00D-01 BMatC= 7.75D-15 BMatP= 9.39D-14
 IDIUse=1 WtCom= 1.00D+00 WtEn= 0.00D+00
 Coeff-Com:  0.103D-05 0.284D-04-0.183D-03-0.133D-02-0.203D-02-0.989D-03
 Coeff-Com:  0.177D-01 0.971D-01 0.269D+00 0.621D+00
 Coeff:      0.103D-05 0.284D-04-0.183D-03-0.133D-02-0.203D-02-0.989D-03
 Coeff:      0.177D-01 0.971D-01 0.269D+00 0.621D+00
 Gap=     0.172 Goal=   None    Shift=    0.000
 RMSDP=4.52D-09 MaxDP=2.60D-07 DE=-2.10D-10 OVMax= 2.31D-08

 SCF Done:  E(RB3LYP) =  -1130.32504868     A.U. after   10 cycles
            NFock= 10  Conv=0.45D-08     -V/T= 2.0059
 KE= 1.123702725993D+03 PE=-8.164252669208D+03 EE= 3.137807914819D+03
 Leave Link  502 at Mon Jul 28 19:26:29 2025, MaxMem=  1073741824 cpu:            1501.6 elap:             188.3
 (Enter /app/gaussian/g16/l701.exe)
 ... and contract with generalized density number  0.
 Compute integral first derivatives.
 Leave Link  701 at Mon Jul 28 19:26:30 2025, MaxMem=  1073741824 cpu:               1.7 elap:               0.2
 (Enter /app/gaussian/g16/l702.exe)
 L702 exits ... SP integral derivatives will be done elsewhere.
 Leave Link  702 at Mon Jul 28 19:26:30 2025, MaxMem=  1073741824 cpu:               0.2 elap:               0.0
 (Enter /app/gaussian/g16/l703.exe)
 Integral derivatives from FoFJK, PRISM(SPDF).
 Compute integral first derivatives, UseDBF=F ICtDFT=           0.
 Calling FoFJK, ICntrl=      2127 FMM=T ISym2X=0 I1Cent= 0 IOpClX= 0 NMat=1 NMatS=1 NMatT=0.
 FoFJK:  IHMeth= 1 ICntrl=    2127 DoSepK=F KAlg= 0 I1Cent=           0 FoldK=F
 IRaf=         0 NMat=       1 IRICut=       1 DoRegI=T DoRafI=F ISym2E= 0 IDoP0=0 IntGTp=1.
 FoFCou: FMM=T IPFlag=           0 FMFlag=      100000 FMFlg1=        2001
         NFxFlg=           0 DoJE=F BraDBF=F KetDBF=F FulRan=T
         wScrn=  0.000000 ICntrl=      2127 IOpCl=  0 I1Cent=           0 NGrid=           0
         NMat0=    1 NMatS0=      1 NMatT0=    0 NMatD0=    1 NMtDS0=    0 NMtDT0=    0
 Symmetry not used in FoFCou.
 FMM levels:  10  Number of levels for PrismC:   9
 Leave Link  703 at Mon Jul 28 19:27:20 2025, MaxMem=  1073741824 cpu:             397.4 elap:              49.8
 (Enter /app/gaussian/g16/l716.exe)
 Dipole        =-1.95058597D-01 9.10949609D-01 1.43706105D-01
 ***** Axes restored to original set *****
 -------------------------------------------------------------------
 Center     Atomic                   Forces (Hartrees/Bohr)
 Number     Number              X              Y              Z
 -------------------------------------------------------------------
      1        6          -0.000010090   -0.000007818    0.000017145
      2        6           0.000015751    0.000014459   -0.000043783
      3        6           0.000006046    0.000022073   -0.000009065
      4        6          -0.000022288   -0.000014961    0.000004207
      5        6           0.000013256    0.000007660    0.000010010
      6        6          -0.000024576   -0.000017742   -0.000013260
      7        6          -0.000007043   -0.000001293   -0.000011673
      8        6           0.000016623   -0.000030791    0.000002718
      9        6          -0.000015010    0.000017004    0.000013624
     10        6           0.000018689    0.000001142   -0.000008877
     11        6          -0.000014793    0.000033336   -0.000005791
     12        6          -0.000058182    0.000046560   -0.000020999
     13        8           0.000025116   -0.000034337    0.000004930
     14        6           0.000026428   -0.000011876    0.000012362
     15        6           0.000013307   -0.000011573    0.000006151
     16        6           0.000008903   -0.000025474    0.000014778
     17        6          -0.000009142   -0.000013891    0.000030097
     18        6          -0.000016764   -0.000008823    0.000032482
     19        6           0.000022885    0.000033800   -0.000035118
     20        6          -0.000039579   -0.000017245    0.000038343
     21        6          -0.000007461    0.000001867   -0.000025566
     22        6           0.000002040    0.000004889    0.000023063
     23        6          -0.000008690   -0.000002907   -0.000016123
     24        6          -0.000001341   -0.000002535    0.000004890
     25        6           0.000009446   -0.000000207   -0.000009965
     26        6           0.000013622   -0.000003263    0.000000910
     27        6          -0.000001707    0.000003822    0.000006537
     28        6           0.000006437   -0.000000310    0.000027931
     29        1          -0.000001390    0.000001374   -0.000000644
     30        1           0.000003628    0.000000491    0.000001603
     31        1           0.000003459    0.000002264    0.000009677
     32        1           0.000001126   -0.000002870    0.000000910
     33        1           0.000008239    0.000006930   -0.000018353
     34        1           0.000002826   -0.000002770    0.000000597
     35        1          -0.000007185    0.000010638    0.000004010
     36        1          -0.000001862   -0.000001249    0.000000007
     37        1           0.000007608   -0.000005470    0.000000427
     38        1          -0.000004599   -0.000002025   -0.000002068
     39        1          -0.000004401   -0.000021856    0.000011103
     40        1           0.000000548   -0.000016518   -0.000001326
     41        1           0.000010197   -0.000013241    0.000009788
     42        1          -0.000000640    0.000031564   -0.000003337
     43        1          -0.000002409    0.000007407   -0.000006320
     44        1          -0.000000286   -0.000000653   -0.000007206
     45        1          -0.000001810    0.000009074   -0.000005436
     46        1           0.000006416    0.000006628    0.000001041
     47        1           0.000001621    0.000015145   -0.000000421
     48        1           0.000009544    0.000010662    0.000002069
     49        1           0.000003001    0.000003312   -0.000006011
     50        1          -0.000000682   -0.000000351    0.000002347
     51        1           0.000010116   -0.000000789   -0.000009548
     52        1          -0.000001198   -0.000011446   -0.000011433
     53        1          -0.000002064    0.000000406    0.000007776
     54        1          -0.000006843   -0.000004458    0.000007980
     55        1           0.000016166   -0.000009765   -0.000018694
     56        1           0.000004552   -0.000003887   -0.000004766
     57        1          -0.000001737    0.000001536   -0.000005955
     58        1          -0.000002950    0.000007445    0.000004890
     59        1           0.000003974    0.000004634    0.000000878
     60        1           0.000001757    0.000000169    0.000004855
     61        1          -0.000002499    0.000001442   -0.000002978
     62        1           0.000001984    0.000000724    0.000001050
     63        1          -0.000003271   -0.000001252    0.000002058
     64        1           0.000001154    0.000000235    0.000000625
     65        1          -0.000005570    0.000001351   -0.000001997
     66        1          -0.000006207   -0.000004297    0.000001340
     67        1          -0.000003110    0.000001756   -0.000002107
     68        1          -0.000005371   -0.000007557   -0.000003004
     69        1           0.000001901   -0.000003349   -0.000001350
     70        1           0.000007080    0.000001723   -0.000005587
     71        1          -0.000000783    0.000004945    0.000001302
     72        1          -0.000001912    0.000000385   -0.000007748
 -------------------------------------------------------------------
 Cartesian Forces:  Max     0.000058182 RMS     0.000013173
 Leave Link  716 at Mon Jul 28 19:27:20 2025, MaxMem=  1073741824 cpu:               0.2 elap:               0.0
 (Enter /app/gaussian/g16/l103.exe)

 GradGradGradGradGradGradGradGradGradGradGradGradGradGradGradGradGradGrad
 Berny optimization.
 Using GEDIIS/GDIIS optimizer.
 FormGI is forming the generalized inverse of G from B-inverse, IUseBI=4.
 Internal  Forces:  Max     0.000033164 RMS     0.000006079
 Search for a local minimum.
 Step number  10 out of a maximum of  432
 All quantities printed in internal units (Hartrees-Bohrs-Radians)
 RMS Force = .60786D-05 SwitMx=.10000D-02 MixMth= 2
 Mixed Optimization -- En-DIIS/RFO-DIIS
 Swapping is turned off.
 Update second derivatives using D2CorX and points    2    3    4    5    6
                                                      7    8    9   10
 DE= -9.36D-07 DEPred=-5.13D-07 R= 1.82D+00
 Trust test= 1.82D+00 RLast= 1.13D-02 DXMaxT set to 8.49D-01
 ITU=  0  1  1  0  1  1  0  1  1  0
     Eigenvalues ---    0.00169   0.00223   0.00240   0.00242   0.00278
     Eigenvalues ---    0.00279   0.00301   0.00318   0.00342   0.00358
     Eigenvalues ---    0.00373   0.00433   0.00508   0.00544   0.00602
     Eigenvalues ---    0.00630   0.00766   0.00957   0.01082   0.01290
     Eigenvalues ---    0.01752   0.02026   0.02065   0.02152   0.02359
     Eigenvalues ---    0.02468   0.02568   0.02815   0.02916   0.03010
     Eigenvalues ---    0.03091   0.03238   0.03494   0.03522   0.03587
     Eigenvalues ---    0.03643   0.03771   0.03898   0.04043   0.04319
     Eigenvalues ---    0.04398   0.04435   0.04608   0.04681   0.04697
     Eigenvalues ---    0.04732   0.04756   0.04819   0.04848   0.04900
     Eigenvalues ---    0.04911   0.04918   0.04981   0.05089   0.05215
     Eigenvalues ---    0.05314   0.05352   0.05376   0.05407   0.05420
     Eigenvalues ---    0.05449   0.05460   0.05469   0.05479   0.05550
     Eigenvalues ---    0.05583   0.05587   0.05637   0.05705   0.05833
     Eigenvalues ---    0.05912   0.05957   0.06074   0.06351   0.06750
     Eigenvalues ---    0.06959   0.07162   0.07252   0.07650   0.07754
     Eigenvalues ---    0.08024   0.08076   0.08212   0.08245   0.08436
     Eigenvalues ---    0.08553   0.08722   0.09110   0.09170   0.09434
     Eigenvalues ---    0.09934   0.10213   0.10903   0.11133   0.12085
     Eigenvalues ---    0.12169   0.12493   0.12921   0.12995   0.14349
     Eigenvalues ---    0.14747   0.15411   0.15816   0.15926   0.15950
     Eigenvalues ---    0.15992   0.15992   0.15998   0.16000   0.16000
     Eigenvalues ---    0.16000   0.16000   0.16000   0.16000   0.16000
     Eigenvalues ---    0.16010   0.16032   0.16103   0.16121   0.16457
     Eigenvalues ---    0.16720   0.16886   0.17082   0.18396   0.18932
     Eigenvalues ---    0.19164   0.19423   0.20516   0.21014   0.21856
     Eigenvalues ---    0.21932   0.22375   0.22620   0.22863   0.22957
     Eigenvalues ---    0.24714   0.25591   0.25713   0.25883   0.26186
     Eigenvalues ---    0.26655   0.26926   0.27378   0.27678   0.27885
     Eigenvalues ---    0.27912   0.28162   0.28412   0.28467   0.28555
     Eigenvalues ---    0.28680   0.28705   0.28916   0.29020   0.29317
     Eigenvalues ---    0.29347   0.29470   0.29636   0.30009   0.31015
     Eigenvalues ---    0.31067   0.32836   0.33231   0.33285   0.33588
     Eigenvalues ---    0.33661   0.33742   0.33828   0.33896   0.33937
     Eigenvalues ---    0.33953   0.33963   0.33996   0.34016   0.34042
     Eigenvalues ---    0.34058   0.34061   0.34090   0.34100   0.34120
     Eigenvalues ---    0.34124   0.34158   0.34170   0.34179   0.34188
     Eigenvalues ---    0.34201   0.34205   0.34214   0.34217   0.34219
     Eigenvalues ---    0.34235   0.34252   0.34267   0.34317   0.34347
     Eigenvalues ---    0.34374   0.34462   0.34628   0.34729   0.34810
     Eigenvalues ---    0.35167   0.35256   0.35328   0.36290   0.37704
     Eigenvalues ---    0.38310   0.41494   0.52828   0.53268   0.55009
 En-DIIS/RFO-DIIS/Sim-DIIS IScMMF=       -3 using points:    10    9    8    7    6    5    4    3    2
 RFO step:  Lambda=-2.91176137D-07.
 NNeg= 0 NGDIIS= 9 SimSw=  2.50D-01 Rises=F DC= -9.36D-07 SmlDif=  1.00D-05
 NRisDI= 0 DoIntr=F SqrtH=F CThrHd= 10.0 CDAdj=  3.0
 RMS Error=  0.3170957397D-03 NUsed= 9 OKEnD=F EnDIS=F
 InvSVX:  RCond= 1.34D-06 Info=           0 Equed=N FErr=  4.14D-14 BErr=  1.75D-16
 DidBck=F Rises=F RFO-DIIS coefs:    1.34108   -0.18691   -0.18448   -0.00671   -0.00143
                  RFO-DIIS coefs:    0.02887    0.00768    0.00109    0.00081
 Iteration  1 RMS(Cart)=  0.00083222 RMS(Int)=  0.00000039
 Iteration  2 RMS(Cart)=  0.00000038 RMS(Int)=  0.00000019
 ITry= 1 IFail=0 DXMaxC= 5.54D-03 DCOld= 1.00D+10 DXMaxT= 8.49D-01 DXLimC= 3.00D+00 Rises=F
 Variable       Old X    -DE/DX   Delta X   Delta X   Delta X     New X
                                 (Linear)    (Quad)   (Total)
    R1        2.93006  -0.00003  -0.00010  -0.00004  -0.00014   2.92992
    R2        2.06972   0.00000  -0.00002   0.00002   0.00000   2.06972
    R3        2.06726   0.00000   0.00004  -0.00002   0.00002   2.06728
    R4        2.07026  -0.00001  -0.00004  -0.00000  -0.00004   2.07023
    R5        2.95320  -0.00000  -0.00007   0.00001  -0.00006   2.95314
    R6        2.91255   0.00001  -0.00001   0.00003   0.00002   2.91257
    R7        2.95932  -0.00001   0.00013  -0.00004   0.00009   2.95941
    R8        2.84643  -0.00000   0.00000   0.00001   0.00002   2.84645
    R9        2.91738  -0.00001  -0.00003  -0.00003  -0.00006   2.91732
   R10        2.09496   0.00000   0.00001  -0.00000   0.00001   2.09497
   R11        2.90670  -0.00001  -0.00009   0.00002  -0.00007   2.90663
   R12        2.55685  -0.00000  -0.00002  -0.00001  -0.00003   2.55683
   R13        2.98366   0.00003   0.00010   0.00006   0.00016   2.98382
   R14        2.94987   0.00001   0.00010  -0.00004   0.00006   2.94993
   R15        2.09697  -0.00002   0.00002  -0.00007  -0.00005   2.09692
   R16        2.94651   0.00000  -0.00008   0.00006  -0.00002   2.94648
   R17        2.90765  -0.00001  -0.00014   0.00006  -0.00008   2.90757
   R18        2.96315  -0.00002   0.00004  -0.00011  -0.00007   2.96309
   R19        2.07083  -0.00000   0.00002  -0.00002   0.00000   2.07084
   R20        2.07055  -0.00001   0.00001  -0.00003  -0.00002   2.07053
   R21        2.06975  -0.00000  -0.00000   0.00000  -0.00000   2.06975
   R22        2.55187   0.00001  -0.00003   0.00003   0.00000   2.55187
   R23        2.84893   0.00001   0.00007   0.00001   0.00008   2.84900
   R24        2.76030  -0.00000   0.00011  -0.00006   0.00005   2.76035
   R25        2.05727  -0.00001   0.00001  -0.00003  -0.00001   2.05726
   R26        2.05367  -0.00000  -0.00001  -0.00000  -0.00001   2.05365
   R27        2.91849  -0.00002   0.00000  -0.00009  -0.00009   2.91840
   R28        2.06915  -0.00002   0.00006  -0.00009  -0.00003   2.06912
   R29        2.07897   0.00001  -0.00002   0.00004   0.00002   2.07899
   R30        2.79083  -0.00002  -0.00014   0.00006  -0.00008   2.79075
   R31        2.91582   0.00003   0.00002   0.00007   0.00009   2.91591
   R32        2.07644  -0.00000   0.00001  -0.00001   0.00000   2.07644
   R33        1.84888  -0.00001  -0.00002  -0.00002  -0.00004   1.84884
   R34        2.90736   0.00001   0.00003   0.00003   0.00005   2.90742
   R35        2.07632  -0.00001   0.00000  -0.00003  -0.00002   2.07629
   R36        2.07712  -0.00001  -0.00005   0.00002  -0.00003   2.07709
   R37        2.07167  -0.00001   0.00002  -0.00004  -0.00002   2.07166
   R38        2.07475  -0.00001   0.00001  -0.00002  -0.00001   2.07474
   R39        2.92289   0.00000  -0.00000   0.00001   0.00001   2.92289
   R40        2.06747   0.00000  -0.00003   0.00003  -0.00000   2.06747
   R41        2.07335  -0.00001   0.00003  -0.00006  -0.00002   2.07333
   R42        2.08136  -0.00001   0.00001  -0.00003  -0.00002   2.08135
   R43        2.07801  -0.00000   0.00001  -0.00000   0.00000   2.07802
   R44        2.96037  -0.00001   0.00004  -0.00004  -0.00000   2.96036
   R45        2.07101  -0.00001  -0.00001  -0.00001  -0.00002   2.07098
   R46        2.07352   0.00000  -0.00002   0.00002   0.00000   2.07352
   R47        2.96251   0.00002   0.00000   0.00005   0.00005   2.96256
   R48        2.06518  -0.00001  -0.00002   0.00000  -0.00002   2.06516
   R49        2.07116   0.00000   0.00002  -0.00000   0.00002   2.07118
   R50        2.94454  -0.00000   0.00010  -0.00005   0.00004   2.94459
   R51        2.08784  -0.00002   0.00002  -0.00007  -0.00005   2.08779
   R52        2.94505  -0.00001  -0.00002  -0.00003  -0.00005   2.94500
   R53        2.92673   0.00002   0.00000   0.00005   0.00006   2.92679
   R54        2.08579   0.00000  -0.00001   0.00001   0.00000   2.08579
   R55        2.91741  -0.00000  -0.00003   0.00002  -0.00001   2.91741
   R56        2.07044   0.00001   0.00000   0.00000   0.00001   2.07045
   R57        2.08326  -0.00001   0.00002  -0.00003  -0.00001   2.08325
   R58        2.91504   0.00000  -0.00002   0.00003   0.00001   2.91505
   R59        2.07784   0.00000   0.00003  -0.00001   0.00001   2.07786
   R60        2.07067  -0.00000  -0.00003   0.00001  -0.00002   2.07065
   R61        2.92560  -0.00000  -0.00002   0.00001  -0.00001   2.92559
   R62        2.08097  -0.00000   0.00000  -0.00001  -0.00001   2.08096
   R63        2.08342  -0.00000   0.00002  -0.00002  -0.00000   2.08342
   R64        2.91536   0.00000  -0.00000   0.00003   0.00002   2.91539
   R65        2.91538  -0.00000  -0.00004   0.00003  -0.00001   2.91536
   R66        2.08447   0.00000   0.00001  -0.00001   0.00000   2.08447
   R67        2.07649  -0.00000   0.00001  -0.00001  -0.00000   2.07649
   R68        2.07361  -0.00000   0.00000  -0.00001  -0.00001   2.07360
   R69        2.07341  -0.00001   0.00001  -0.00002  -0.00002   2.07340
   R70        2.07695   0.00000   0.00001  -0.00000   0.00001   2.07695
   R71        2.07363  -0.00001   0.00001  -0.00003  -0.00001   2.07361
   R72        2.07074  -0.00000   0.00001  -0.00001  -0.00000   2.07073
   R73        2.07369  -0.00001   0.00001  -0.00003  -0.00001   2.07368
   R74        2.07369  -0.00000   0.00002  -0.00002  -0.00000   2.07369
   R75        2.07115  -0.00000   0.00000  -0.00001  -0.00000   2.07115
    A1        1.93680   0.00000  -0.00006   0.00006   0.00001   1.93681
    A2        1.95265  -0.00000  -0.00004   0.00002  -0.00003   1.95262
    A3        1.94105  -0.00001   0.00002  -0.00006  -0.00004   1.94101
    A4        1.87068   0.00000   0.00000  -0.00001  -0.00001   1.87067
    A5        1.87765   0.00001   0.00007  -0.00001   0.00006   1.87771
    A6        1.88158   0.00000   0.00001  -0.00000   0.00001   1.88159
    A7        1.92642   0.00000   0.00015  -0.00011   0.00005   1.92646
    A8        1.93383   0.00000   0.00001   0.00002   0.00003   1.93386
    A9        1.98011  -0.00001   0.00005  -0.00002   0.00004   1.98015
   A10        1.86727  -0.00000  -0.00006  -0.00001  -0.00007   1.86720
   A11        1.72940   0.00000  -0.00004   0.00009   0.00004   1.72944
   A12        2.01199  -0.00000  -0.00011   0.00003  -0.00008   2.01191
   A13        1.99743   0.00000   0.00007  -0.00005   0.00002   1.99744
   A14        1.81703  -0.00000   0.00009  -0.00007   0.00002   1.81705
   A15        1.82374  -0.00000  -0.00008   0.00005  -0.00002   1.82371
   A16        2.11156  -0.00000  -0.00008   0.00003  -0.00005   2.11151
   A17        1.83242   0.00000  -0.00001   0.00002   0.00002   1.83244
   A18        1.85824   0.00000  -0.00001   0.00004   0.00003   1.85827
   A19        2.00594   0.00001  -0.00012   0.00012  -0.00001   2.00594
   A20        2.15726  -0.00002   0.00008  -0.00009  -0.00000   2.15725
   A21        2.09966   0.00001   0.00004  -0.00001   0.00003   2.09969
   A22        1.98019  -0.00001  -0.00004   0.00004   0.00000   1.98019
   A23        1.96282  -0.00001  -0.00002   0.00002  -0.00000   1.96282
   A24        1.83510   0.00000   0.00024  -0.00021   0.00003   1.83513
   A25        1.95733   0.00002  -0.00020   0.00023   0.00003   1.95736
   A26        1.86055  -0.00001  -0.00004  -0.00004  -0.00008   1.86047
   A27        1.85573  -0.00000   0.00011  -0.00010   0.00001   1.85574
   A28        1.95001   0.00001  -0.00001   0.00010   0.00009   1.95009
   A29        1.93386  -0.00001  -0.00011   0.00001  -0.00010   1.93376
   A30        1.92502   0.00000  -0.00002   0.00002   0.00000   1.92503
   A31        1.85636  -0.00000   0.00009  -0.00007   0.00003   1.85638
   A32        1.90324  -0.00001   0.00001   0.00000   0.00001   1.90325
   A33        1.89325   0.00000   0.00005  -0.00008  -0.00003   1.89322
   A34        1.91662   0.00000  -0.00006   0.00007   0.00000   1.91662
   A35        1.94807  -0.00000   0.00008  -0.00008  -0.00001   1.94806
   A36        1.93837   0.00000  -0.00004   0.00006   0.00002   1.93839
   A37        1.87374  -0.00000   0.00003  -0.00004  -0.00001   1.87372
   A38        1.88537  -0.00000   0.00000  -0.00002  -0.00002   1.88536
   A39        1.89948   0.00000  -0.00001   0.00001   0.00001   1.89949
   A40        2.10235   0.00000   0.00005   0.00000   0.00005   2.10240
   A41        2.02026   0.00001   0.00005   0.00001   0.00006   2.02031
   A42        2.15953  -0.00001  -0.00011  -0.00000  -0.00011   2.15942
   A43        2.12698  -0.00000  -0.00005   0.00003  -0.00002   2.12696
   A44        2.09508   0.00001   0.00006   0.00000   0.00007   2.09515
   A45        2.05971  -0.00001  -0.00002  -0.00002  -0.00005   2.05966
   A46        2.12112  -0.00000  -0.00005  -0.00000  -0.00005   2.12106
   A47        2.09756   0.00000   0.00007  -0.00002   0.00005   2.09761
   A48        2.05847  -0.00000   0.00001  -0.00002  -0.00001   2.05845
   A49        1.94314   0.00000  -0.00002   0.00003   0.00001   1.94315
   A50        1.94259   0.00001  -0.00016   0.00013  -0.00003   1.94256
   A51        1.93074  -0.00000  -0.00001  -0.00000  -0.00002   1.93072
   A52        1.92937  -0.00001   0.00028  -0.00028   0.00000   1.92937
   A53        1.84885  -0.00000  -0.00006   0.00003  -0.00002   1.84883
   A54        1.86541   0.00001  -0.00003   0.00009   0.00006   1.86547
   A55        1.83224  -0.00000  -0.00000  -0.00003  -0.00003   1.83221
   A56        1.94776  -0.00001   0.00011  -0.00015  -0.00004   1.94772
   A57        1.92585   0.00001   0.00011  -0.00003   0.00008   1.92593
   A58        1.94865   0.00001  -0.00017   0.00009  -0.00009   1.94856
   A59        1.89045   0.00000  -0.00003   0.00016   0.00013   1.89058
   A60        1.91675  -0.00000  -0.00001  -0.00004  -0.00004   1.91671
   A61        1.93930  -0.00000   0.00006  -0.00004   0.00001   1.93931
   A62        1.94514   0.00001  -0.00005   0.00007   0.00002   1.94516
   A63        1.90968  -0.00001  -0.00008  -0.00006  -0.00014   1.90954
   A64        1.89707  -0.00000   0.00001   0.00003   0.00004   1.89712
   A65        1.93481   0.00000  -0.00015   0.00008  -0.00007   1.93475
   A66        1.91524  -0.00000   0.00014  -0.00011   0.00003   1.91527
   A67        1.85957   0.00000   0.00014  -0.00002   0.00012   1.85969
   A68        1.95059  -0.00000   0.00005  -0.00002   0.00003   1.95062
   A69        1.91891   0.00000   0.00005  -0.00003   0.00001   1.91893
   A70        1.91215  -0.00000   0.00009  -0.00013  -0.00003   1.91211
   A71        1.92709   0.00000  -0.00011   0.00013   0.00001   1.92711
   A72        1.89577   0.00000  -0.00013   0.00007  -0.00007   1.89570
   A73        1.85677   0.00000   0.00005  -0.00001   0.00004   1.85681
   A74        2.00261   0.00001   0.00003  -0.00002   0.00001   2.00263
   A75        1.90984  -0.00001   0.00002  -0.00011  -0.00009   1.90975
   A76        1.90455  -0.00000   0.00000   0.00000   0.00000   1.90456
   A77        1.88256   0.00000  -0.00003   0.00005   0.00002   1.88258
   A78        1.90334  -0.00000  -0.00005   0.00004  -0.00001   1.90333
   A79        1.85524   0.00001   0.00003   0.00005   0.00008   1.85532
   A80        1.93680  -0.00001   0.00008  -0.00015  -0.00007   1.93673
   A81        1.90119   0.00001  -0.00001   0.00003   0.00002   1.90121
   A82        1.93699   0.00000  -0.00001   0.00003   0.00002   1.93701
   A83        1.92173   0.00000  -0.00003   0.00006   0.00003   1.92176
   A84        1.90050   0.00000  -0.00008   0.00006  -0.00002   1.90048
   A85        1.86537  -0.00000   0.00005  -0.00002   0.00003   1.86540
   A86        1.81786   0.00001  -0.00009   0.00007  -0.00002   1.81784
   A87        1.95642   0.00000   0.00000   0.00008   0.00008   1.95650
   A88        1.93002  -0.00001   0.00002  -0.00009  -0.00007   1.92995
   A89        1.95753  -0.00000   0.00002  -0.00001   0.00001   1.95754
   A90        1.93432  -0.00000  -0.00003  -0.00003  -0.00006   1.93426
   A91        1.86897   0.00000   0.00006  -0.00001   0.00005   1.86903
   A92        1.85031  -0.00001   0.00004  -0.00002   0.00003   1.85034
   A93        1.92956   0.00000   0.00009  -0.00003   0.00007   1.92963
   A94        1.94467   0.00000  -0.00015   0.00007  -0.00008   1.94458
   A95        1.94941   0.00000   0.00007  -0.00001   0.00006   1.94947
   A96        1.93119  -0.00000  -0.00006  -0.00003  -0.00009   1.93110
   A97        1.86028   0.00000  -0.00000   0.00001   0.00001   1.86029
   A98        1.80791  -0.00000   0.00006   0.00001   0.00007   1.80798
   A99        2.10778  -0.00000   0.00011  -0.00007   0.00004   2.10782
   A100       1.80861   0.00000  -0.00005   0.00007   0.00002   1.80862
   A101       2.06744  -0.00000  -0.00009  -0.00008  -0.00016   2.06728
   A102       1.84172   0.00001  -0.00006   0.00016   0.00011   1.84182
   A103       1.79744  -0.00000  -0.00000  -0.00003  -0.00004   1.79740
   A104       2.10497  -0.00001   0.00022  -0.00015   0.00007   2.10504
   A105       1.91132   0.00000  -0.00011   0.00006  -0.00006   1.91126
   A106       1.82639   0.00000  -0.00007   0.00011   0.00004   1.82643
   A107       1.92820   0.00000  -0.00004  -0.00002  -0.00006   1.92814
   A108       1.81982  -0.00000  -0.00002  -0.00001  -0.00002   1.81979
   A109       1.85177   0.00000  -0.00000   0.00003   0.00003   1.85181
   A110       2.07907   0.00003   0.00004   0.00005   0.00010   2.07916
   A111       1.91409  -0.00001   0.00005  -0.00004   0.00001   1.91410
   A112       1.84286  -0.00001  -0.00006   0.00001  -0.00005   1.84281
   A113       1.89719  -0.00001  -0.00003  -0.00002  -0.00005   1.89713
   A114       1.87395  -0.00001  -0.00002   0.00001  -0.00001   1.87394
   A115       1.84160   0.00001   0.00002  -0.00002   0.00000   1.84160
   A116       1.95179  -0.00001  -0.00010   0.00004  -0.00005   1.95173
   A117       1.92327   0.00000  -0.00003   0.00004   0.00001   1.92328
   A118       1.91962   0.00000   0.00006  -0.00003   0.00003   1.91964
   A119       1.89842   0.00000  -0.00004   0.00002  -0.00002   1.89840
   A120       1.90694   0.00000   0.00005  -0.00002   0.00003   1.90697
   A121       1.86144  -0.00000   0.00007  -0.00006   0.00001   1.86145
   A122       2.01031   0.00000  -0.00007   0.00004  -0.00003   2.01028
   A123       1.89360   0.00000  -0.00004   0.00005   0.00001   1.89361
   A124       1.90950  -0.00000   0.00002  -0.00003  -0.00001   1.90948
   A125       1.89238  -0.00000   0.00005  -0.00001   0.00004   1.89241
   A126       1.89793  -0.00000   0.00002  -0.00003  -0.00001   1.89792
   A127       1.85378  -0.00000   0.00003  -0.00002   0.00001   1.85378
   A128       1.92796   0.00000  -0.00005   0.00006   0.00000   1.92797
   A129       1.96279  -0.00001   0.00000  -0.00005  -0.00005   1.96273
   A130       1.87738   0.00000   0.00001  -0.00004  -0.00003   1.87735
   A131       1.92641   0.00001   0.00000   0.00006   0.00006   1.92647
   A132       1.88196  -0.00000   0.00000   0.00001   0.00001   1.88197
   A133       1.88437   0.00000   0.00003  -0.00002   0.00001   1.88438
   A134       1.93134   0.00000  -0.00002   0.00002  -0.00000   1.93134
   A135       1.94203  -0.00000  -0.00005   0.00003  -0.00003   1.94201
   A136       1.94056  -0.00000  -0.00002   0.00001  -0.00001   1.94055
   A137       1.88194  -0.00000   0.00002  -0.00002   0.00000   1.88194
   A138       1.88090  -0.00000   0.00004  -0.00003   0.00001   1.88091
   A139       1.88466   0.00000   0.00004  -0.00001   0.00003   1.88469
   A140       1.92894   0.00001  -0.00002   0.00005   0.00002   1.92897
   A141       1.93395   0.00000   0.00001  -0.00000   0.00000   1.93395
   A142       1.95612  -0.00000  -0.00003   0.00001  -0.00002   1.95610
   A143       1.88036  -0.00000   0.00002  -0.00003  -0.00001   1.88035
   A144       1.88392  -0.00000  -0.00001  -0.00001  -0.00002   1.88390
   A145       1.87781   0.00000   0.00003  -0.00002   0.00002   1.87782
   A146       1.93536   0.00001  -0.00003   0.00006   0.00003   1.93539
   A147       1.93307   0.00000  -0.00004   0.00004   0.00000   1.93308
   A148       1.95282  -0.00001   0.00001  -0.00007  -0.00006   1.95276
   A149       1.88199  -0.00000   0.00004  -0.00003   0.00002   1.88201
   A150       1.87758   0.00000  -0.00000   0.00002   0.00001   1.87760
   A151       1.88020   0.00000   0.00002  -0.00002  -0.00000   1.88020
    D1       -0.74242  -0.00000  -0.00060   0.00017  -0.00043  -0.74286
    D2        1.32273   0.00000  -0.00058   0.00010  -0.00048   1.32225
    D3       -2.66522  -0.00000  -0.00067   0.00013  -0.00053  -2.66575
    D4        1.34601   0.00000  -0.00067   0.00021  -0.00045   1.34556
    D5       -2.87202   0.00000  -0.00064   0.00014  -0.00050  -2.87252
    D6       -0.57679   0.00000  -0.00073   0.00018  -0.00055  -0.57734
    D7       -2.83195  -0.00000  -0.00066   0.00018  -0.00048  -2.83243
    D8       -0.76679  -0.00000  -0.00064   0.00011  -0.00053  -0.76732
    D9        1.52845  -0.00000  -0.00073   0.00014  -0.00059   1.52786
   D10        1.08403   0.00000  -0.00005  -0.00009  -0.00014   1.08388
   D11       -1.25841   0.00000  -0.00008  -0.00002  -0.00010  -1.25851
   D12        3.07831   0.00000  -0.00007  -0.00006  -0.00013   3.07818
   D13       -1.02144  -0.00000  -0.00011  -0.00004  -0.00016  -1.02159
   D14        2.91931  -0.00000  -0.00014   0.00002  -0.00011   2.91920
   D15        0.97285  -0.00000  -0.00013  -0.00001  -0.00014   0.97270
   D16       -3.11703  -0.00000   0.00005  -0.00011  -0.00006  -3.11709
   D17        0.82372  -0.00000   0.00002  -0.00004  -0.00002   0.82370
   D18       -1.12274  -0.00000   0.00002  -0.00007  -0.00005  -1.12279
   D19       -1.06740  -0.00000  -0.00033   0.00045   0.00012  -1.06727
   D20        3.09737  -0.00000  -0.00034   0.00046   0.00012   3.09749
   D21        1.04830  -0.00000  -0.00038   0.00044   0.00006   1.04836
   D22        1.03334   0.00000  -0.00018   0.00032   0.00015   1.03349
   D23       -1.08508   0.00000  -0.00018   0.00033   0.00014  -1.08493
   D24       -3.13416  -0.00000  -0.00023   0.00031   0.00009  -3.13407
   D25        2.93714   0.00000  -0.00031   0.00043   0.00012   2.93726
   D26        0.81873   0.00000  -0.00032   0.00044   0.00011   0.81884
   D27       -1.23035   0.00000  -0.00037   0.00042   0.00005  -1.23030
   D28        1.29141  -0.00000   0.00040   0.00005   0.00045   1.29186
   D29       -1.07509   0.00001   0.00036   0.00022   0.00058  -1.07451
   D30       -3.07207   0.00001   0.00034   0.00025   0.00060  -3.07147
   D31       -0.75033  -0.00000   0.00023   0.00013   0.00036  -0.74998
   D32       -3.11683   0.00001   0.00019   0.00030   0.00049  -3.11635
   D33        1.16937   0.00001   0.00017   0.00033   0.00050   1.16987
   D34       -2.73562  -0.00000   0.00037   0.00008   0.00045  -2.73518
   D35        1.18106   0.00001   0.00032   0.00026   0.00058   1.18164
   D36       -0.81592   0.00001   0.00031   0.00029   0.00059  -0.81532
   D37        0.87700  -0.00000   0.00031  -0.00028   0.00002   0.87703
   D38       -2.47992  -0.00000   0.00030  -0.00018   0.00013  -2.47979
   D39        3.07300  -0.00000   0.00044  -0.00042   0.00002   3.07302
   D40       -0.28392  -0.00000   0.00044  -0.00032   0.00012  -0.28380
   D41       -1.11218  -0.00000   0.00037  -0.00033   0.00004  -1.11215
   D42        1.81408   0.00000   0.00037  -0.00023   0.00014   1.81422
   D43       -0.57370   0.00000  -0.00025  -0.00007  -0.00032  -0.57402
   D44       -2.69392   0.00000  -0.00022  -0.00014  -0.00036  -2.69429
   D45        1.50509  -0.00000  -0.00032  -0.00011  -0.00044   1.50465
   D46       -2.85025   0.00000  -0.00038   0.00005  -0.00032  -2.85057
   D47        1.31271   0.00000  -0.00035  -0.00002  -0.00036   1.31235
   D48       -0.77147  -0.00000  -0.00045   0.00001  -0.00043  -0.77190
   D49        1.34761   0.00000  -0.00030  -0.00003  -0.00033   1.34728
   D50       -0.77262  -0.00000  -0.00027  -0.00010  -0.00037  -0.77299
   D51       -2.85679  -0.00000  -0.00037  -0.00007  -0.00044  -2.85724
   D52       -2.95109  -0.00001   0.00017  -0.00009   0.00008  -2.95101
   D53       -0.70636   0.00001  -0.00017   0.00029   0.00012  -0.70624
   D54        1.30560   0.00000   0.00009   0.00006   0.00015   1.30575
   D55        0.39812  -0.00000   0.00016  -0.00018  -0.00002   0.39810
   D56        2.64284   0.00001  -0.00017   0.00020   0.00002   2.64287
   D57       -1.62838   0.00000   0.00009  -0.00003   0.00006  -1.62832
   D58       -2.87512   0.00001  -0.00009   0.00019   0.00010  -2.87502
   D59        0.14613  -0.00000   0.00017  -0.00019  -0.00002   0.14610
   D60        0.04013   0.00001  -0.00011   0.00031   0.00020   0.04034
   D61        3.06138  -0.00000   0.00014  -0.00006   0.00008   3.06146
   D62        1.40622   0.00000  -0.00022   0.00014  -0.00009   1.40613
   D63       -0.66042   0.00000  -0.00026   0.00015  -0.00011  -0.66053
   D64       -2.75705   0.00000  -0.00023   0.00023  -0.00001  -2.75706
   D65       -0.84132  -0.00000   0.00002  -0.00013  -0.00011  -0.84143
   D66       -2.90796  -0.00000  -0.00002  -0.00012  -0.00014  -2.90810
   D67        1.27860   0.00000   0.00001  -0.00004  -0.00003   1.27857
   D68       -2.86552  -0.00000   0.00002  -0.00012  -0.00010  -2.86562
   D69        1.35102  -0.00000  -0.00002  -0.00010  -0.00012   1.35091
   D70       -0.74560  -0.00000   0.00001  -0.00003  -0.00002  -0.74562
   D71        0.75115  -0.00000  -0.00003  -0.00003  -0.00006   0.75109
   D72       -1.36725  -0.00000  -0.00002   0.00000  -0.00002  -1.36727
   D73        2.89264  -0.00000  -0.00007   0.00000  -0.00007   2.89257
   D74        3.00777   0.00000  -0.00028   0.00024  -0.00004   3.00773
   D75        0.88937   0.00000  -0.00027   0.00028   0.00000   0.88937
   D76       -1.13393   0.00000  -0.00032   0.00028  -0.00004  -1.13397
   D77       -1.24830   0.00000  -0.00037   0.00026  -0.00011  -1.24841
   D78        2.91649   0.00000  -0.00036   0.00029  -0.00007   2.91642
   D79        0.89319   0.00000  -0.00041   0.00030  -0.00011   0.89308
   D80       -2.96170   0.00000  -0.00014  -0.00006  -0.00020  -2.96190
   D81        1.24563   0.00001  -0.00018   0.00000  -0.00018   1.24545
   D82       -0.87748   0.00000  -0.00020  -0.00000  -0.00020  -0.87768
   D83       -0.84940   0.00000  -0.00022  -0.00003  -0.00025  -0.84966
   D84       -2.92526   0.00000  -0.00026   0.00003  -0.00024  -2.92549
   D85        1.23482   0.00000  -0.00028   0.00003  -0.00026   1.23457
   D86        1.18901  -0.00000  -0.00011  -0.00016  -0.00027   1.18874
   D87       -0.88684  -0.00000  -0.00015  -0.00010  -0.00025  -0.88710
   D88       -3.00995  -0.00000  -0.00017  -0.00010  -0.00027  -3.01022
   D89        0.56380   0.00000   0.00037  -0.00028   0.00009   0.56389
   D90       -2.62521   0.00000   0.00011  -0.00010   0.00001  -2.62520
   D91       -1.55883  -0.00001   0.00039  -0.00037   0.00002  -1.55880
   D92        1.53535  -0.00001   0.00014  -0.00018  -0.00005   1.53530
   D93        2.67928   0.00000   0.00031  -0.00030   0.00001   2.67929
   D94       -0.50973   0.00000   0.00005  -0.00012  -0.00006  -0.50979
   D95        1.55607  -0.00000  -0.00011   0.00005  -0.00006   1.55601
   D96       -0.59039  -0.00001  -0.00004  -0.00007  -0.00011  -0.59050
   D97       -2.62503  -0.00001  -0.00018   0.00003  -0.00015  -2.62518
   D98       -2.57965   0.00001  -0.00014   0.00019   0.00006  -2.57959
   D99        1.55708   0.00001  -0.00006   0.00007   0.00001   1.55709
   D100      -0.47756   0.00001  -0.00021   0.00018  -0.00003  -0.47759
   D101      -0.56485   0.00000   0.00001   0.00008   0.00008  -0.56476
   D102      -2.71131  -0.00000   0.00008  -0.00005   0.00003  -2.71127
   D103       1.53724   0.00000  -0.00006   0.00006  -0.00000   1.53723
   D104      -0.14799  -0.00000  -0.00034   0.00040   0.00006  -0.14793
   D105       3.05183  -0.00000  -0.00015   0.00014  -0.00000   3.05183
   D106       3.04496  -0.00000  -0.00007   0.00021   0.00013   3.04509
   D107      -0.03841  -0.00000   0.00012  -0.00005   0.00007  -0.03833
   D108       1.08934   0.00000  -0.00012   0.00015   0.00003   1.08936
   D109      -3.03268  -0.00001   0.00011  -0.00010   0.00002  -3.03267
   D110      -0.96152   0.00001  -0.00003   0.00009   0.00006  -0.96146
   D111      -2.10141   0.00000  -0.00038   0.00034  -0.00004  -2.10145
   D112       0.05976  -0.00001  -0.00014   0.00009  -0.00006   0.05970
   D113       2.13092   0.00001  -0.00029   0.00028  -0.00001   2.13091
   D114      -0.18943  -0.00001   0.00019  -0.00043  -0.00025  -0.18968
   D115       3.06991  -0.00000  -0.00007  -0.00006  -0.00013   3.06978
   D116       2.89507  -0.00001  -0.00000  -0.00018  -0.00018   2.89489
   D117      -0.12878   0.00000  -0.00026   0.00019  -0.00007  -0.12884
   D118      -2.59823   0.00000   0.00019   0.00002   0.00022  -2.59801
   D119      -0.48447   0.00000   0.00004   0.00003   0.00007  -0.48440
   D120       1.65172  -0.00000   0.00019  -0.00014   0.00004   1.65176
   D121       1.51631   0.00000   0.00021   0.00004   0.00025   1.51656
   D122      -2.65312   0.00000   0.00006   0.00005   0.00010  -2.65302
   D123      -0.51693  -0.00001   0.00020  -0.00012   0.00008  -0.51685
   D124      -0.49838  -0.00000   0.00014   0.00005   0.00019  -0.49819
   D125       1.61537  -0.00000  -0.00002   0.00006   0.00004   1.61542
   D126      -2.53162  -0.00001   0.00013  -0.00011   0.00002  -2.53160
   D127      -2.98878   0.00001   0.00146   0.00117   0.00263  -2.98616
   D128       1.18123   0.00002   0.00142   0.00132   0.00274   1.18397
   D129      -0.93137   0.00002   0.00156   0.00120   0.00276  -0.92861
   D130      -0.55570   0.00000   0.00010  -0.00011  -0.00001  -0.55571
   D131      -2.70178   0.00000   0.00038  -0.00022   0.00016  -2.70162
   D132       1.55720   0.00000   0.00025  -0.00018   0.00007   1.55727
   D133       1.48885  -0.00000   0.00006  -0.00019  -0.00013   1.48872
   D134      -0.65722  -0.00000   0.00034  -0.00030   0.00004  -0.65719
   D135      -2.68144  -0.00000   0.00021  -0.00026  -0.00005  -2.68149
   D136      -2.69711   0.00000  -0.00010   0.00005  -0.00005  -2.69716
   D137       1.44000   0.00000   0.00018  -0.00006   0.00012   1.44012
   D138      -0.58421   0.00000   0.00005  -0.00002   0.00003  -0.58418
   D139       1.13985   0.00000  -0.00015   0.00012  -0.00002   1.13983
   D140      -3.00153   0.00000  -0.00013   0.00015   0.00003  -3.00151
   D141      -0.97177   0.00001  -0.00021   0.00025   0.00004  -0.97173
   D142      -3.01171  -0.00000  -0.00039   0.00016  -0.00024  -3.01194
   D143      -0.86990  -0.00000  -0.00037   0.00019  -0.00018  -0.87009
   D144       1.15986   0.00000  -0.00045   0.00028  -0.00017   1.15969
   D145      -0.96241  -0.00000  -0.00022   0.00011  -0.00011  -0.96253
   D146       1.17939  -0.00000  -0.00020   0.00014  -0.00006   1.17933
   D147      -3.07403   0.00000  -0.00029   0.00024  -0.00005  -3.07408
   D148      -0.95008  -0.00000   0.00020  -0.00027  -0.00006  -0.95014
   D149       1.15624  -0.00000   0.00022  -0.00029  -0.00007   1.15617
   D150      -3.08709   0.00000   0.00022  -0.00024  -0.00003  -3.08712
   D151       1.18316  -0.00001   0.00023  -0.00039  -0.00016   1.18300
   D152      -2.99371  -0.00001   0.00024  -0.00041  -0.00017  -2.99387
   D153      -0.95385  -0.00000   0.00024  -0.00037  -0.00013  -0.95398
   D154      -3.09222  -0.00000   0.00021  -0.00028  -0.00007  -3.09229
   D155      -0.98590  -0.00000   0.00023  -0.00030  -0.00007  -0.98598
   D156       1.05395   0.00000   0.00023  -0.00026  -0.00003   1.05392
   D157       0.09231  -0.00000   0.00033   0.00018   0.00051   0.09283
   D158       2.20802  -0.00000   0.00050   0.00014   0.00064   2.20866
   D159      -2.00985   0.00000   0.00046   0.00019   0.00065  -2.00920
   D160       2.21180   0.00000   0.00029   0.00031   0.00060   2.21240
   D161      -1.95568   0.00000   0.00046   0.00027   0.00073  -1.95495
   D162       0.10964   0.00001   0.00042   0.00032   0.00074   0.11037
   D163      -1.98354   0.00000   0.00037   0.00027   0.00064  -1.98291
   D164       0.13216   0.00000   0.00053   0.00023   0.00076   0.13293
   D165       2.19748   0.00001   0.00050   0.00028   0.00077   2.19825
   D166       0.41832   0.00000  -0.00035  -0.00020  -0.00055   0.41777
   D167       2.80679  -0.00000  -0.00020  -0.00037  -0.00057   2.80623
   D168      -1.47678  -0.00000  -0.00029  -0.00034  -0.00063  -1.47741
   D169      -1.68455   0.00000  -0.00053  -0.00016  -0.00068  -1.68523
   D170       0.70392  -0.00000  -0.00038  -0.00032  -0.00070   0.70323
   D171       2.70353  -0.00000  -0.00047  -0.00029  -0.00076   2.70277
   D172       2.52922   0.00000  -0.00054  -0.00015  -0.00068   2.52854
   D173      -1.36550  -0.00000  -0.00039  -0.00031  -0.00070  -1.36620
   D174       0.63411  -0.00000  -0.00048  -0.00028  -0.00076   0.63335
   D175       1.07105  -0.00001  -0.00004  -0.00009  -0.00013   1.07091
   D176      -2.94577  -0.00001  -0.00001  -0.00020  -0.00021  -2.94598
   D177      -0.96711  -0.00000  -0.00009  -0.00008  -0.00018  -0.96729
   D178      -1.18593   0.00000  -0.00017   0.00007  -0.00010  -1.18602
   D179       1.08044   0.00000  -0.00014  -0.00004  -0.00018   1.08026
   D180       3.05910   0.00001  -0.00022   0.00008  -0.00014   3.05896
   D181       3.07380  -0.00000  -0.00005  -0.00007  -0.00012   3.07368
   D182      -0.94302  -0.00000  -0.00002  -0.00018  -0.00020  -0.94322
   D183       1.03564   0.00000  -0.00010  -0.00006  -0.00016   1.03548
   D184       1.18374  -0.00000  -0.00037   0.00006  -0.00030   1.18344
   D185      -1.01675  -0.00000  -0.00040   0.00008  -0.00032  -1.01706
   D186      -2.99323   0.00000  -0.00041   0.00011  -0.00030  -2.99353
   D187      -1.07521  -0.00000  -0.00037   0.00014  -0.00023  -1.07544
   D188       3.00748   0.00000  -0.00040   0.00016  -0.00024   3.00725
   D189       1.03100   0.00000  -0.00041   0.00019  -0.00022   1.03078
   D190      -3.05794  -0.00000  -0.00034   0.00012  -0.00022  -3.05817
   D191       1.02475  -0.00000  -0.00037   0.00014  -0.00024   1.02451
   D192      -0.95173   0.00000  -0.00039   0.00017  -0.00022  -0.95195
   D193       0.94789   0.00000  -0.00047   0.00022  -0.00025   0.94764
   D194       3.03666   0.00001  -0.00046   0.00025  -0.00021   3.03645
   D195      -1.14843   0.00000  -0.00045   0.00020  -0.00025  -1.14868
   D196      -2.97656  -0.00000  -0.00030   0.00004  -0.00026  -2.97681
   D197      -0.88779   0.00000  -0.00029   0.00008  -0.00021  -0.88800
   D198       1.21030  -0.00000  -0.00028   0.00003  -0.00025   1.21005
   D199      -1.01424  -0.00000  -0.00034   0.00004  -0.00029  -1.01454
   D200       1.07453  -0.00000  -0.00033   0.00007  -0.00025   1.07428
   D201      -3.11057  -0.00000  -0.00032   0.00003  -0.00029  -3.11086
   D202       2.93685   0.00000   0.00019   0.00019   0.00038   2.93723
   D203       0.82306   0.00000   0.00032   0.00011   0.00044   0.82350
   D204      -1.22425   0.00000   0.00022   0.00018   0.00040  -1.22385
   D205      -1.13784   0.00000   0.00026   0.00017   0.00042  -1.13742
   D206       3.03155   0.00000   0.00040   0.00008   0.00048   3.03203
   D207       0.98424   0.00000   0.00029   0.00015   0.00044   0.98469
   D208       0.84642   0.00000   0.00025   0.00014   0.00039   0.84682
   D209      -1.26737   0.00000   0.00039   0.00006   0.00045  -1.26692
   D210       2.96851   0.00000   0.00029   0.00013   0.00042   2.96892
   D211      -3.09190   0.00000  -0.00028   0.00018  -0.00009  -3.09199
   D212      -0.96773   0.00000  -0.00029   0.00024  -0.00006  -0.96779
   D213       1.04756   0.00000  -0.00027   0.00022  -0.00005   1.04751
   D214      -0.96378   0.00000  -0.00041   0.00028  -0.00013  -0.96391
   D215       1.16040   0.00000  -0.00043   0.00033  -0.00009   1.16030
   D216      -3.10750   0.00000  -0.00040   0.00032  -0.00008  -3.10759
   D217       1.06191   0.00000  -0.00032   0.00021  -0.00011   1.06180
   D218      -3.09710   0.00000  -0.00034   0.00026  -0.00008  -3.09718
   D219      -1.08181   0.00000  -0.00031   0.00025  -0.00007  -1.08188
   D220       2.98777   0.00000  -0.00011   0.00038   0.00027   2.98805
   D221      -1.13459   0.00001  -0.00014   0.00046   0.00032  -1.13427
   D222       0.93796   0.00000  -0.00009   0.00037   0.00028   0.93824
   D223       0.86294  -0.00000  -0.00004   0.00029   0.00025   0.86319
   D224       3.02377   0.00000  -0.00008   0.00037   0.00029   3.02406
   D225      -1.18687  -0.00000  -0.00003   0.00028   0.00025  -1.18662
   D226      -1.14553  -0.00000  -0.00012   0.00035   0.00023  -1.14530
   D227       1.01530   0.00000  -0.00015   0.00042   0.00027   1.01557
   D228       3.08784   0.00000  -0.00010   0.00033   0.00023   3.08808
   D229       1.08879  -0.00000  -0.00013   0.00019   0.00006   1.08885
   D230      -1.00315   0.00000  -0.00011   0.00018   0.00008  -1.00307
   D231      -3.10472  -0.00000  -0.00010   0.00017   0.00006  -3.10466
   D232      -1.09287   0.00000  -0.00010   0.00018   0.00008  -1.09278
   D233       3.09838   0.00000  -0.00007   0.00017   0.00010   3.09848
   D234       0.99680   0.00000  -0.00007   0.00016   0.00009   0.99689
   D235       3.13578  -0.00000  -0.00014   0.00017   0.00003   3.13582
   D236       1.04384   0.00000  -0.00012   0.00017   0.00005   1.04389
   D237      -1.05773  -0.00000  -0.00011   0.00015   0.00004  -1.05770
   D238      -1.04566  -0.00000   0.00051  -0.00018   0.00033  -1.04533
   D239      -3.12878  -0.00000   0.00049  -0.00017   0.00032  -3.12846
   D240       1.05653  -0.00000   0.00047  -0.00015   0.00031   1.05684
   D241       1.11602   0.00000   0.00045  -0.00010   0.00035   1.11637
   D242      -0.96710   0.00000   0.00043  -0.00009   0.00034  -0.96676
   D243      -3.06497   0.00000   0.00040  -0.00008   0.00033  -3.06465
   D244      -3.11411   0.00000   0.00047  -0.00008   0.00040  -3.11371
   D245       1.08595   0.00000   0.00045  -0.00007   0.00039   1.08634
   D246      -1.01192   0.00000   0.00043  -0.00005   0.00038  -1.01154
         Item               Value     Threshold  Converged?
 Maximum Force            0.000033     0.000450     YES
 RMS     Force            0.000006     0.000300     YES
 Maximum Displacement     0.005543     0.001800     NO 
 RMS     Displacement     0.000832     0.001200     YES
 Predicted change in Energy=-1.451120D-07
 Lowest energy point so far.  Saving SCF results.
 GradGradGradGradGradGradGradGradGradGradGradGradGradGradGradGradGradGrad

 Leave Link  103 at Mon Jul 28 19:27:20 2025, MaxMem=  1073741824 cpu:               1.1 elap:               0.2
 (Enter /app/gaussian/g16/l202.exe)
 Stoichiometry    C27H44O
 Framework group  C1[X(C27H44O)]
 Deg. of freedom   210
 Full point group                 C1      NOp   1
 RotChk:  IX=0 Diff= 1.98D-04
 Largest Abelian subgroup         C1      NOp   1
 Largest concise Abelian subgroup C1      NOp   1
                         Standard orientation:                         
 ---------------------------------------------------------------------
 Center     Atomic      Atomic             Coordinates (Angstroms)
 Number     Number       Type             X           Y           Z
 ---------------------------------------------------------------------
      1          6           0       -1.084698   -0.475931   -0.658770
      2          6           0       -0.646084    0.891666   -0.074663
      3          6           0        0.247127    0.681826    1.190357
      4          6           0        1.534490   -0.055278    0.929125
      5          6           0        2.369223    0.492329   -0.240989
      6          6           0        3.560664   -0.455056   -0.660606
      7          6           0        3.075295   -1.624840   -1.570094
      8          6           0        4.202936   -1.105879    0.576837
      9          6           0        3.454604   -1.399746    1.661827
     10          6           0        2.068160   -0.956790    1.785348
     11          6           0        5.668977   -1.436369    0.456655
     12          6           0        6.516418   -0.162901    0.244185
     13          8           0        7.662871   -0.600088   -0.577673
     14          6           0        5.705939    0.948540   -0.454940
     15          6           0        4.662588    0.361078   -1.421071
     16          6           0        1.487244    0.904493   -1.461265
     17          6           0        0.198336    1.677863   -1.096597
     18          6           0       -0.741077    0.196295    2.272469
     19          6           0       -2.079742    0.933026    1.927068
     20          6           0       -1.819726    1.694447    0.581565
     21          6           0       -3.047526    2.146356   -0.264781
     22          6           0       -3.961610    1.093958   -0.961632
     23          6           0       -4.833064    0.162339   -0.092118
     24          6           0       -5.873574   -0.602364   -0.935990
     25          6           0       -6.836325   -1.509165   -0.131248
     26          6           0       -7.960010   -2.045448   -1.042197
     27          6           0       -6.104344   -2.676433    0.562833
     28          6           0       -3.900159    3.146878    0.554192
     29          1           0       -0.251226   -1.186485   -0.661461
     30          1           0       -1.892721   -0.927821   -0.075983
     31          1           0       -1.434326   -0.371961   -1.691779
     32          1           0        0.556998    1.704953    1.483971
     33          1           0        2.827644    1.427263    0.142491
     34          1           0        3.879620   -2.359087   -1.691780
     35          1           0        2.801250   -1.271441   -2.570353
     36          1           0        2.213786   -2.136177   -1.127438
     37          1           0        3.896809   -1.935369    2.500116
     38          1           0        1.503757   -1.286307    2.653612
     39          1           0        6.024130   -1.992967    1.330120
     40          1           0        5.852221   -2.071245   -0.422945
     41          1           0        6.900913    0.204969    1.205540
     42          1           0        8.334466    0.107614   -0.650590
     43          1           0        6.392765    1.623373   -0.984159
     44          1           0        5.202269    1.553139    0.312462
     45          1           0        4.196579    1.158491   -2.011650
     46          1           0        5.176990   -0.293950   -2.136418
     47          1           0        1.195214    0.009090   -2.017982
     48          1           0        2.087394    1.512866   -2.149345
     49          1           0        0.454268    2.659883   -0.668553
     50          1           0       -0.373919    1.869569   -2.015824
     51          1           0       -0.390814    0.428336    3.284647
     52          1           0       -0.869295   -0.892050    2.217259
     53          1           0       -2.899304    0.216159    1.833751
     54          1           0       -2.366309    1.634543    2.718910
     55          1           0       -1.350717    2.652383    0.869664
     56          1           0       -2.613893    2.724777   -1.098843
     57          1           0       -3.363275    0.479751   -1.643657
     58          1           0       -4.642058    1.673606   -1.606852
     59          1           0       -5.360409    0.744622    0.677215
     60          1           0       -4.198745   -0.556766    0.438146
     61          1           0       -6.473648    0.129982   -1.498316
     62          1           0       -5.353851   -1.217550   -1.688942
     63          1           0       -7.303507   -0.887329    0.650924
     64          1           0       -7.543534   -2.669327   -1.845162
     65          1           0       -8.518954   -1.225075   -1.509788
     66          1           0       -8.670752   -2.659746   -0.475347
     67          1           0       -5.597885   -3.309388   -0.179350
     68          1           0       -6.812586   -3.308330    1.113454
     69          1           0       -5.350947   -2.324086    1.276268
     70          1           0       -3.286752    3.984574    0.909383
     71          1           0       -4.710676    3.560315   -0.059248
     72          1           0       -4.354307    2.673543    1.432217
 ---------------------------------------------------------------------
 Rotational constants (GHZ):           0.4107226           0.0649219           0.0627622
 Leave Link  202 at Mon Jul 28 19:27:20 2025, MaxMem=  1073741824 cpu:               0.1 elap:               0.0
 (Enter /app/gaussian/g16/l301.exe)
 Standard basis: 6-31+G (6D, 7F)
 Ernie: Thresh=  0.10000D-02 Tol=  0.10000D-05 Strict=F.
 There are   452 symmetry adapted cartesian basis functions of A   symmetry.
 There are   452 symmetry adapted basis functions of A   symmetry.
   452 basis functions,   904 primitive gaussians,   452 cartesian basis functions
   107 alpha electrons      107 beta electrons
       nuclear repulsion energy      2772.4516712239 Hartrees.
 IExCor=  402 DFT=T Ex+Corr=B3LYP ExCW=0 ScaHFX=  0.200000
 ScaDFX=  0.800000  0.720000  1.000000  0.810000 ScalE2=  1.000000  1.000000
 IRadAn=      5 IRanWt=     -1 IRanGd=            0 ICorTp=0 IEmpDi=  4
 NAtoms=   72 NActive=   72 NUniq=   72 SFac= 1.00D+00 NAtFMM=   60 NAOKFM=T Big=T
 Integral buffers will be    131072 words long.
 Raffenetti 2 integral format.
 Two-electron integral symmetry is turned on.
 Leave Link  301 at Mon Jul 28 19:27:20 2025, MaxMem=  1073741824 cpu:               0.4 elap:               0.1
 (Enter /app/gaussian/g16/l302.exe)
 NPDir=0 NMtPBC=     1 NCelOv=     1 NCel=       1 NClECP=     1 NCelD=      1
         NCelK=      1 NCelE2=     1 NClLst=     1 CellRange=     0.0.
 One-electron integrals computed using PRISM.
 One-electron integral symmetry used in STVInt
 NBasis=   452 RedAO= T EigKep=  1.31D-06  NBF=   452
 NBsUse=   449 1.00D-06 EigRej=  7.65D-07 NBFU=   449
 Precomputing XC quadrature grid using
 IXCGrd= 4 IRadAn=           5 IRanWt=          -1 IRanGd=           0 AccXCQ= 0.00D+00.
 Generated NRdTot=       0 NPtTot=           0 NUsed=           0 NTot=          32
 NSgBfM=   439   438   438   438   439 MxSgAt=    72 MxSgA2=    72.
 Leave Link  302 at Mon Jul 28 19:27:21 2025, MaxMem=  1073741824 cpu:              10.4 elap:               1.3
 (Enter /app/gaussian/g16/l303.exe)
 DipDrv:  MaxL=1.
 Leave Link  303 at Mon Jul 28 19:27:21 2025, MaxMem=  1073741824 cpu:               0.4 elap:               0.1
 (Enter /app/gaussian/g16/l401.exe)
 Initial guess from the checkpoint file:  "/work/scr/Gau-256556.chk"
 B after Tr=    -0.000000   -0.000000    0.000000
         Rot=    1.000000    0.000073    0.000008   -0.000019 Ang=   0.01 deg.
 Guess basis will be translated and rotated to current coordinates.
 JPrj=2 DoOrth=T DoCkMO=T.
 Leave Link  401 at Mon Jul 28 19:27:22 2025, MaxMem=  1073741824 cpu:               3.4 elap:               0.4
 (Enter /app/gaussian/g16/l502.exe)
 Integral symmetry usage will be decided dynamically.
 Closed shell SCF:
 Using DIIS extrapolation, IDIIS=  1040.
 NGot=  1073741824 LenX=  1073322182 LenY=  1073117426
 Requested convergence on RMS density matrix=1.00D-08 within 128 cycles.
 Requested convergence on MAX density matrix=1.00D-06.
 Requested convergence on             energy=1.00D-06.
 No special actions if energy rises.
 Fock matrices will be formed incrementally for  20 cycles.

 Cycle   1  Pass 1  IDiag  1:
 FoFJK:  IHMeth= 1 ICntrl=       0 DoSepK=F KAlg= 0 I1Cent=           0 FoldK=F
 IRaf= 990000000 NMat=       1 IRICut=       1 DoRegI=T DoRafI=F ISym2E= 0 IDoP0=0 IntGTp=1.
 FoFCou: FMM=T IPFlag=           0 FMFlag=      100000 FMFlg1=        2001
         NFxFlg=           0 DoJE=F BraDBF=F KetDBF=F FulRan=T
         wScrn=  0.000000 ICntrl=         0 IOpCl=  0 I1Cent=           0 NGrid=           0
         NMat0=    1 NMatS0=      1 NMatT0=    0 NMatD0=    1 NMtDS0=    0 NMtDT0=    0
 Symmetry not used in FoFCou.
 FMM levels:  10  Number of levels for PrismC:   9
 E= -1130.32504558378    
 DIIS: error= 8.87D-05 at cycle   1 NSaved=   1.
 NSaved= 1 IEnMin= 1 EnMin= -1130.32504558378     IErMin= 1 ErrMin= 8.87D-05
 ErrMax= 8.87D-05  0.00D+00 EMaxC= 1.00D-01 BMatC= 3.28D-06 BMatP= 3.28D-06
 IDIUse=1 WtCom= 1.00D+00 WtEn= 0.00D+00
 Coeff-Com:  0.100D+01
 Coeff:      0.100D+01
 Gap=     0.456 Goal=   None    Shift=    0.000
 RMSDP=7.19D-05 MaxDP=5.65D-03              OVMax= 5.65D-04

 Cycle   2  Pass 1  IDiag  1:
 RMSU=  7.04D-05    CP:  1.00D+00
 E= -1130.32504878974     Delta-E=       -0.000003205965 Rises=F Damp=F
 DIIS: error= 5.47D-06 at cycle   2 NSaved=   2.
 NSaved= 2 IEnMin= 2 EnMin= -1130.32504878974     IErMin= 2 ErrMin= 5.47D-06
 ErrMax= 5.47D-06  0.00D+00 EMaxC= 1.00D-01 BMatC= 1.69D-08 BMatP= 3.28D-06
 IDIUse=1 WtCom= 1.00D+00 WtEn= 0.00D+00
 Coeff-Com: -0.176D-01 0.102D+01
 Coeff:     -0.176D-01 0.102D+01
 Gap=     0.172 Goal=   None    Shift=    0.000
 RMSDP=1.11D-05 MaxDP=1.13D-03 DE=-3.21D-06 OVMax= 5.39D-05

 Cycle   3  Pass 1  IDiag  1:
 RMSU=  1.03D-05    CP:  1.00D+00  1.00D+00
 E= -1130.32504880028     Delta-E=       -0.000000010536 Rises=F Damp=F
 DIIS: error= 4.44D-06 at cycle   3 NSaved=   3.
 NSaved= 3 IEnMin= 3 EnMin= -1130.32504880028     IErMin= 3 ErrMin= 4.44D-06
 ErrMax= 4.44D-06  0.00D+00 EMaxC= 1.00D-01 BMatC= 1.86D-08 BMatP= 1.69D-08
 IDIUse=1 WtCom= 1.00D+00 WtEn= 0.00D+00
 Coeff-Com: -0.130D-01 0.534D+00 0.479D+00
 Coeff:     -0.130D-01 0.534D+00 0.479D+00
 Gap=     0.172 Goal=   None    Shift=    0.000
 RMSDP=5.82D-06 MaxDP=7.95D-04 DE=-1.05D-08 OVMax= 4.08D-05

 Cycle   4  Pass 1  IDiag  1:
 RMSU=  4.17D-06    CP:  1.00D+00  1.02D+00  7.06D-01
 E= -1130.32504881756     Delta-E=       -0.000000017279 Rises=F Damp=F
 DIIS: error= 1.69D-06 at cycle   4 NSaved=   4.
 NSaved= 4 IEnMin= 4 EnMin= -1130.32504881756     IErMin= 4 ErrMin= 1.69D-06
 ErrMax= 1.69D-06  0.00D+00 EMaxC= 1.00D-01 BMatC= 1.39D-09 BMatP= 1.69D-08
 IDIUse=1 WtCom= 1.00D+00 WtEn= 0.00D+00
 Coeff-Com: -0.297D-02 0.811D-01 0.221D+00 0.701D+00
 Coeff:     -0.297D-02 0.811D-01 0.221D+00 0.701D+00
 Gap=     0.172 Goal=   None    Shift=    0.000
 RMSDP=1.53D-06 MaxDP=9.51D-05 DE=-1.73D-08 OVMax= 1.85D-05

 Cycle   5  Pass 1  IDiag  1:
 RMSU=  1.24D-06    CP:  1.00D+00  1.02D+00  7.08D-01  7.99D-01
 E= -1130.32504881845     Delta-E=       -0.000000000893 Rises=F Damp=F
 DIIS: error= 9.27D-07 at cycle   5 NSaved=   5.
 NSaved= 5 IEnMin= 5 EnMin= -1130.32504881845     IErMin= 5 ErrMin= 9.27D-07
 ErrMax= 9.27D-07  0.00D+00 EMaxC= 1.00D-01 BMatC= 4.68D-10 BMatP= 1.39D-09
 IDIUse=1 WtCom= 1.00D+00 WtEn= 0.00D+00
 Coeff-Com: -0.364D-03-0.108D-01 0.859D-01 0.451D+00 0.474D+00
 Coeff:     -0.364D-03-0.108D-01 0.859D-01 0.451D+00 0.474D+00
 Gap=     0.172 Goal=   None    Shift=    0.000
 RMSDP=6.42D-07 MaxDP=6.37D-05 DE=-8.93D-10 OVMax= 7.43D-06

 Cycle   6  Pass 1  IDiag  1:
 RMSU=  3.33D-07    CP:  1.00D+00  1.02D+00  7.32D-01  8.21D-01  6.36D-01
 E= -1130.32504881883     Delta-E=       -0.000000000376 Rises=F Damp=F
 DIIS: error= 1.34D-07 at cycle   6 NSaved=   6.
 NSaved= 6 IEnMin= 6 EnMin= -1130.32504881883     IErMin= 6 ErrMin= 1.34D-07
 ErrMax= 1.34D-07  0.00D+00 EMaxC= 1.00D-01 BMatC= 1.05D-11 BMatP= 4.68D-10
 IDIUse=1 WtCom= 1.00D+00 WtEn= 0.00D+00
 Coeff-Com: -0.383D-04-0.918D-02 0.308D-01 0.185D+00 0.226D+00 0.567D+00
 Coeff:     -0.383D-04-0.918D-02 0.308D-01 0.185D+00 0.226D+00 0.567D+00
 Gap=     0.172 Goal=   None    Shift=    0.000
 RMSDP=1.56D-07 MaxDP=9.59D-06 DE=-3.76D-10 OVMax= 1.29D-06

 Cycle   7  Pass 1  IDiag  1:
 RMSU=  9.64D-08    CP:  1.00D+00  1.02D+00  7.34D-01  8.28D-01  6.36D-01
                    CP:  7.50D-01
 E= -1130.32504881853     Delta-E=        0.000000000297 Rises=F Damp=F
 DIIS: error= 7.39D-08 at cycle   7 NSaved=   7.
 NSaved= 7 IEnMin= 6 EnMin= -1130.32504881883     IErMin= 7 ErrMin= 7.39D-08
 ErrMax= 7.39D-08  0.00D+00 EMaxC= 1.00D-01 BMatC= 2.69D-12 BMatP= 1.05D-11
 IDIUse=1 WtCom= 1.00D+00 WtEn= 0.00D+00
 Coeff-Com:  0.338D-04-0.409D-02 0.534D-02 0.425D-01 0.640D-01 0.355D+00
 Coeff-Com:  0.537D+00
 Coeff:      0.338D-04-0.409D-02 0.534D-02 0.425D-01 0.640D-01 0.355D+00
 Coeff:      0.537D+00
 Gap=     0.172 Goal=   None    Shift=    0.000
 RMSDP=5.54D-08 MaxDP=5.71D-06 DE= 2.97D-10 OVMax= 4.13D-07

 Cycle   8  Pass 1  IDiag  1:
 RMSU=  3.59D-08    CP:  1.00D+00  1.02D+00  7.34D-01  8.32D-01  6.24D-01
                    CP:  7.46D-01  8.82D-01
 E= -1130.32504881885     Delta-E=       -0.000000000321 Rises=F Damp=F
 DIIS: error= 7.39D-09 at cycle   8 NSaved=   8.
 NSaved= 8 IEnMin= 8 EnMin= -1130.32504881885     IErMin= 8 ErrMin= 7.39D-09
 ErrMax= 7.39D-09  0.00D+00 EMaxC= 1.00D-01 BMatC= 7.47D-14 BMatP= 2.69D-12
 IDIUse=1 WtCom= 1.00D+00 WtEn= 0.00D+00
 Coeff-Com:  0.169D-04-0.963D-03-0.230D-03 0.253D-02 0.829D-02 0.101D+00
 Coeff-Com:  0.215D+00 0.674D+00
 Coeff:      0.169D-04-0.963D-03-0.230D-03 0.253D-02 0.829D-02 0.101D+00
 Coeff:      0.215D+00 0.674D+00
 Gap=     0.172 Goal=   None    Shift=    0.000
 RMSDP=1.78D-08 MaxDP=9.21D-07 DE=-3.21D-10 OVMax= 1.00D-07

 Cycle   9  Pass 1  IDiag  1:
 RMSU=  1.06D-08    CP:  1.00D+00  1.02D+00  7.35D-01  8.30D-01  6.29D-01
                    CP:  7.63D-01  8.22D-01  8.86D-01
 E= -1130.32504881887     Delta-E=       -0.000000000025 Rises=F Damp=F
 DIIS: error= 3.21D-09 at cycle   9 NSaved=   9.
 NSaved= 9 IEnMin= 9 EnMin= -1130.32504881887     IErMin= 9 ErrMin= 3.21D-09
 ErrMax= 3.21D-09  0.00D+00 EMaxC= 1.00D-01 BMatC= 1.32D-14 BMatP= 7.47D-14
 IDIUse=1 WtCom= 1.00D+00 WtEn= 0.00D+00
 Coeff-Com:  0.569D-05-0.106D-03-0.654D-03-0.286D-02-0.197D-02 0.174D-01
 Coeff-Com:  0.588D-01 0.349D+00 0.580D+00
 Coeff:      0.569D-05-0.106D-03-0.654D-03-0.286D-02-0.197D-02 0.174D-01
 Coeff:      0.588D-01 0.349D+00 0.580D+00
 Gap=     0.172 Goal=   None    Shift=    0.000
 RMSDP=4.89D-09 MaxDP=3.21D-07 DE=-2.46D-11 OVMax= 5.47D-08

 SCF Done:  E(RB3LYP) =  -1130.32504882     A.U. after    9 cycles
            NFock=  9  Conv=0.49D-08     -V/T= 2.0059
 KE= 1.123703075808D+03 PE=-8.164323470302D+03 EE= 3.137843674452D+03
 Leave Link  502 at Mon Jul 28 19:30:11 2025, MaxMem=  1073741824 cpu:            1352.4 elap:             169.6
 (Enter /app/gaussian/g16/l701.exe)
 ... and contract with generalized density number  0.
 Compute integral first derivatives.
 Leave Link  701 at Mon Jul 28 19:30:12 2025, MaxMem=  1073741824 cpu:               1.9 elap:               0.3
 (Enter /app/gaussian/g16/l702.exe)
 L702 exits ... SP integral derivatives will be done elsewhere.
 Leave Link  702 at Mon Jul 28 19:30:12 2025, MaxMem=  1073741824 cpu:               0.2 elap:               0.0
 (Enter /app/gaussian/g16/l703.exe)
 Integral derivatives from FoFJK, PRISM(SPDF).
 Compute integral first derivatives, UseDBF=F ICtDFT=           0.
 Calling FoFJK, ICntrl=      2127 FMM=T ISym2X=0 I1Cent= 0 IOpClX= 0 NMat=1 NMatS=1 NMatT=0.
 FoFJK:  IHMeth= 1 ICntrl=    2127 DoSepK=F KAlg= 0 I1Cent=           0 FoldK=F
 IRaf=         0 NMat=       1 IRICut=       1 DoRegI=T DoRafI=F ISym2E= 0 IDoP0=0 IntGTp=1.
 FoFCou: FMM=T IPFlag=           0 FMFlag=      100000 FMFlg1=        2001
         NFxFlg=           0 DoJE=F BraDBF=F KetDBF=F FulRan=T
         wScrn=  0.000000 ICntrl=      2127 IOpCl=  0 I1Cent=           0 NGrid=           0
         NMat0=    1 NMatS0=      1 NMatT0=    0 NMatD0=    1 NMtDS0=    0 NMtDT0=    0
 Symmetry not used in FoFCou.
 FMM levels:  10  Number of levels for PrismC:   9
 Leave Link  703 at Mon Jul 28 19:31:02 2025, MaxMem=  1073741824 cpu:             397.0 elap:              49.8
 (Enter /app/gaussian/g16/l716.exe)
 Dipole        =-1.93693538D-01 9.10363676D-01 1.44958508D-01
 ***** Axes restored to original set *****
 -------------------------------------------------------------------
 Center     Atomic                   Forces (Hartrees/Bohr)
 Number     Number              X              Y              Z
 -------------------------------------------------------------------
      1        6           0.000003107    0.000007633    0.000004664
      2        6           0.000025978   -0.000000543   -0.000001779
      3        6          -0.000001997    0.000035678   -0.000002244
      4        6           0.000000930   -0.000022646    0.000004870
      5        6          -0.000009922   -0.000010339   -0.000017079
      6        6           0.000002388   -0.000015051    0.000015058
      7        6           0.000000685    0.000000541   -0.000008697
      8        6          -0.000008230    0.000010626   -0.000013641
      9        6           0.000014356    0.000004681    0.000010976
     10        6          -0.000011350    0.000010892   -0.000005077
     11        6           0.000019542    0.000022304   -0.000004587
     12        6          -0.000022684    0.000017270   -0.000009086
     13        8          -0.000000456   -0.000018133    0.000003393
     14        6           0.000010478   -0.000015214   -0.000006057
     15        6          -0.000003614   -0.000000650    0.000010645
     16        6          -0.000003425   -0.000006190    0.000015438
     17        6          -0.000007654   -0.000012450    0.000004880
     18        6           0.000000726   -0.000017803    0.000021635
     19        6           0.000003246    0.000033236   -0.000017669
     20        6          -0.000027410   -0.000019033    0.000008192
     21        6          -0.000011620    0.000005253   -0.000005250
     22        6           0.000003139    0.000002189    0.000009429
     23        6          -0.000000862   -0.000012617   -0.000007292
     24        6          -0.000007458    0.000002992    0.000004754
     25        6           0.000009658   -0.000007124   -0.000006438
     26        6           0.000000367    0.000001840    0.000005258
     27        6          -0.000001162    0.000003991    0.000001319
     28        6           0.000001348   -0.000000718    0.000014094
     29        1           0.000002615    0.000000187   -0.000001643
     30        1           0.000000170   -0.000003734    0.000000799
     31        1           0.000002504   -0.000004535   -0.000000753
     32        1           0.000001111    0.000003076    0.000001216
     33        1           0.000003918    0.000005750   -0.000004560
     34        1           0.000002267   -0.000001390    0.000002704
     35        1          -0.000005003    0.000001961    0.000003100
     36        1           0.000000404   -0.000002146    0.000002302
     37        1           0.000000672   -0.000003783   -0.000002282
     38        1          -0.000000160   -0.000000744    0.000000606
     39        1          -0.000006719   -0.000013903    0.000003424
     40        1           0.000002387   -0.000009149    0.000003286
     41        1           0.000006590   -0.000010022    0.000004028
     42        1          -0.000008199    0.000012453   -0.000000693
     43        1           0.000000343    0.000004591    0.000003047
     44        1           0.000003004    0.000001808    0.000001603
     45        1          -0.000003056    0.000003996   -0.000003320
     46        1           0.000005427   -0.000000699   -0.000000615
     47        1           0.000000228    0.000003294   -0.000001336
     48        1           0.000003261    0.000006563   -0.000001987
     49        1           0.000002273    0.000002339   -0.000004497
     50        1           0.000000531   -0.000000137    0.000004243
     51        1           0.000006473    0.000004019   -0.000006764
     52        1          -0.000003923   -0.000003277   -0.000009309
     53        1          -0.000001754    0.000000143    0.000004321
     54        1          -0.000003263   -0.000004751    0.000001946
     55        1           0.000007699   -0.000000301   -0.000008611
     56        1           0.000002557   -0.000002365   -0.000000758
     57        1          -0.000000282    0.000000792   -0.000002088
     58        1          -0.000000465    0.000004040    0.000000436
     59        1          -0.000000129    0.000005669   -0.000000189
     60        1           0.000000567   -0.000000447    0.000000528
     61        1          -0.000000674    0.000000020   -0.000002284
     62        1           0.000001216    0.000000103    0.000000286
     63        1          -0.000000510    0.000000806   -0.000001147
     64        1           0.000001073    0.000000410    0.000000037
     65        1          -0.000002218   -0.000000257   -0.000001686
     66        1          -0.000001596   -0.000002749    0.000000177
     67        1          -0.000000319    0.000000087   -0.000001673
     68        1          -0.000002449   -0.000002772   -0.000002988
     69        1           0.000003347   -0.000001789   -0.000002241
     70        1           0.000003991    0.000000469   -0.000002626
     71        1          -0.000001022    0.000003876    0.000000998
     72        1          -0.000000992    0.000001886   -0.000004749
 -------------------------------------------------------------------
 Cartesian Forces:  Max     0.000035678 RMS     0.000008050
 Leave Link  716 at Mon Jul 28 19:31:02 2025, MaxMem=  1073741824 cpu:               0.2 elap:               0.0
 (Enter /app/gaussian/g16/l103.exe)

 GradGradGradGradGradGradGradGradGradGradGradGradGradGradGradGradGradGrad
 Berny optimization.
 Using GEDIIS/GDIIS optimizer.
 FormGI is forming the generalized inverse of G from B-inverse, IUseBI=4.
 Internal  Forces:  Max     0.000019974 RMS     0.000003524
 Search for a local minimum.
 Step number  11 out of a maximum of  432
 All quantities printed in internal units (Hartrees-Bohrs-Radians)
 RMS Force = .35235D-05 SwitMx=.10000D-02 MixMth= 2
 Mixed Optimization -- En-DIIS/RFO-DIIS
 Swapping is turned off.
 Update second derivatives using D2CorX and points    2    3    4    5    6
                                                      7    8    9   10   11
 DE= -1.37D-07 DEPred=-1.45D-07 R= 9.45D-01
 Trust test= 9.45D-01 RLast= 6.58D-03 DXMaxT set to 8.49D-01
 ITU=  0  0  1  1  0  1  1  0  1  1  0
     Eigenvalues ---    0.00169   0.00223   0.00240   0.00244   0.00264
     Eigenvalues ---    0.00281   0.00314   0.00324   0.00347   0.00360
     Eigenvalues ---    0.00370   0.00404   0.00450   0.00513   0.00551
     Eigenvalues ---    0.00621   0.00792   0.00951   0.01080   0.01282
     Eigenvalues ---    0.01767   0.02027   0.02065   0.02148   0.02371
     Eigenvalues ---    0.02474   0.02568   0.02819   0.02923   0.03053
     Eigenvalues ---    0.03093   0.03254   0.03493   0.03516   0.03591
     Eigenvalues ---    0.03661   0.03745   0.03888   0.04055   0.04326
     Eigenvalues ---    0.04398   0.04440   0.04625   0.04685   0.04699
     Eigenvalues ---    0.04735   0.04756   0.04827   0.04851   0.04900
     Eigenvalues ---    0.04913   0.04922   0.04990   0.05096   0.05207
     Eigenvalues ---    0.05315   0.05352   0.05374   0.05408   0.05418
     Eigenvalues ---    0.05431   0.05462   0.05474   0.05483   0.05551
     Eigenvalues ---    0.05584   0.05588   0.05632   0.05747   0.05820
     Eigenvalues ---    0.05918   0.05943   0.06056   0.06367   0.06743
     Eigenvalues ---    0.06963   0.07152   0.07240   0.07652   0.07742
     Eigenvalues ---    0.08025   0.08077   0.08228   0.08250   0.08432
     Eigenvalues ---    0.08529   0.08721   0.09111   0.09160   0.09441
     Eigenvalues ---    0.09918   0.10227   0.10907   0.11138   0.12092
     Eigenvalues ---    0.12179   0.12495   0.12905   0.13000   0.14495
     Eigenvalues ---    0.14746   0.15403   0.15835   0.15924   0.15937
     Eigenvalues ---    0.15992   0.15996   0.15998   0.16000   0.16000
     Eigenvalues ---    0.16000   0.16000   0.16000   0.16000   0.16007
     Eigenvalues ---    0.16022   0.16065   0.16085   0.16164   0.16475
     Eigenvalues ---    0.16773   0.16917   0.17087   0.18426   0.18862
     Eigenvalues ---    0.19155   0.19445   0.20689   0.21014   0.21865
     Eigenvalues ---    0.21942   0.22379   0.22612   0.22903   0.23142
     Eigenvalues ---    0.24727   0.25632   0.25772   0.25876   0.26358
     Eigenvalues ---    0.26530   0.27278   0.27391   0.27615   0.27894
     Eigenvalues ---    0.27967   0.28239   0.28398   0.28473   0.28638
     Eigenvalues ---    0.28700   0.28752   0.28900   0.29077   0.29283
     Eigenvalues ---    0.29440   0.29498   0.29702   0.30667   0.30951
     Eigenvalues ---    0.31085   0.32809   0.33189   0.33277   0.33586
     Eigenvalues ---    0.33661   0.33741   0.33829   0.33893   0.33938
     Eigenvalues ---    0.33952   0.33960   0.33994   0.34021   0.34040
     Eigenvalues ---    0.34060   0.34078   0.34092   0.34102   0.34120
     Eigenvalues ---    0.34138   0.34156   0.34169   0.34181   0.34193
     Eigenvalues ---    0.34201   0.34210   0.34216   0.34219   0.34220
     Eigenvalues ---    0.34238   0.34253   0.34268   0.34311   0.34356
     Eigenvalues ---    0.34363   0.34448   0.34522   0.34663   0.34818
     Eigenvalues ---    0.35181   0.35259   0.35388   0.36139   0.37730
     Eigenvalues ---    0.38239   0.41773   0.52875   0.53282   0.55080
 En-DIIS/RFO-DIIS/Sim-DIIS IScMMF=       -3 using points:    11   10    9    8    7    6    5    4    3    2
 RFO step:  Lambda=-1.36621209D-07.
 NNeg= 0 NGDIIS=10 SimSw=  2.50D-01 Rises=F DC= -1.37D-07 SmlDif=  1.00D-05
 NRisDI= 0 DoIntr=F SqrtH=F CThrHd= 10.0 CDAdj=  3.0
 RMS Error=  0.2763297309D-03 NUsed=10 OKEnD=F EnDIS=F
 InvSVX:  RCond= 2.58D-07 Info=           0 Equed=N FErr=  1.39D-13 BErr=  8.28D-17
 DidBck=F Rises=F RFO-DIIS coefs:    1.45181   -0.17607   -0.26781   -0.15133    0.07097
                  RFO-DIIS coefs:    0.06671    0.02484   -0.00777   -0.00898   -0.00237
 Iteration  1 RMS(Cart)=  0.00055739 RMS(Int)=  0.00000032
 Iteration  2 RMS(Cart)=  0.00000024 RMS(Int)=  0.00000026
 ITry= 1 IFail=0 DXMaxC= 3.03D-03 DCOld= 1.00D+10 DXMaxT= 8.49D-01 DXLimC= 3.00D+00 Rises=F
 Variable       Old X    -DE/DX   Delta X   Delta X   Delta X     New X
                                 (Linear)    (Quad)   (Total)
    R1        2.92992   0.00000  -0.00014   0.00009  -0.00005   2.92987
    R2        2.06972  -0.00000  -0.00002   0.00001  -0.00000   2.06972
    R3        2.06728  -0.00000   0.00004  -0.00004   0.00000   2.06728
    R4        2.07023   0.00000  -0.00004   0.00004  -0.00000   2.07022
    R5        2.95314   0.00001  -0.00001   0.00004   0.00004   2.95317
    R6        2.91257   0.00001   0.00003   0.00004   0.00007   2.91264
    R7        2.95941  -0.00002   0.00007  -0.00010  -0.00003   2.95938
    R8        2.84645  -0.00000   0.00000   0.00000   0.00001   2.84646
    R9        2.91732  -0.00001  -0.00012   0.00005  -0.00007   2.91725
   R10        2.09497   0.00000   0.00000   0.00001   0.00001   2.09498
   R11        2.90663   0.00000  -0.00009   0.00007  -0.00002   2.90661
   R12        2.55683   0.00001  -0.00002   0.00003   0.00001   2.55683
   R13        2.98382  -0.00001   0.00008  -0.00008   0.00000   2.98383
   R14        2.94993  -0.00000   0.00007  -0.00007  -0.00000   2.94993
   R15        2.09692  -0.00001  -0.00006   0.00003  -0.00003   2.09689
   R16        2.94648   0.00000  -0.00007   0.00007  -0.00001   2.94648
   R17        2.90757   0.00001  -0.00003   0.00003   0.00001   2.90757
   R18        2.96309  -0.00000  -0.00004   0.00002  -0.00002   2.96307
   R19        2.07084  -0.00000   0.00000  -0.00001  -0.00001   2.07083
   R20        2.07053  -0.00000  -0.00003   0.00002  -0.00001   2.07052
   R21        2.06975  -0.00000  -0.00001   0.00001  -0.00000   2.06975
   R22        2.55187   0.00001   0.00001  -0.00001   0.00001   2.55188
   R23        2.84900  -0.00000   0.00011  -0.00010   0.00001   2.84902
   R24        2.76035  -0.00001   0.00000  -0.00001  -0.00000   2.76035
   R25        2.05726  -0.00000  -0.00002   0.00000  -0.00001   2.05724
   R26        2.05365  -0.00000  -0.00002   0.00001  -0.00001   2.05364
   R27        2.91840   0.00001  -0.00001   0.00002   0.00001   2.91841
   R28        2.06912  -0.00001  -0.00003  -0.00001  -0.00004   2.06908
   R29        2.07899  -0.00000  -0.00003   0.00004   0.00001   2.07900
   R30        2.79075   0.00001  -0.00003   0.00001  -0.00002   2.79073
   R31        2.91591   0.00001   0.00006   0.00002   0.00007   2.91598
   R32        2.07644  -0.00001  -0.00004   0.00003  -0.00001   2.07642
   R33        1.84884   0.00000  -0.00001  -0.00000  -0.00001   1.84883
   R34        2.90742  -0.00000  -0.00002   0.00001  -0.00000   2.90741
   R35        2.07629  -0.00000  -0.00002   0.00001  -0.00001   2.07628
   R36        2.07709   0.00000  -0.00003   0.00003  -0.00001   2.07709
   R37        2.07166  -0.00001  -0.00002  -0.00000  -0.00002   2.07163
   R38        2.07474  -0.00000  -0.00002   0.00001  -0.00001   2.07473
   R39        2.92289   0.00000  -0.00001   0.00001   0.00000   2.92289
   R40        2.06747   0.00000  -0.00001   0.00002   0.00001   2.06748
   R41        2.07333  -0.00001  -0.00002  -0.00001  -0.00003   2.07330
   R42        2.08135  -0.00001  -0.00002   0.00000  -0.00002   2.08132
   R43        2.07802  -0.00000  -0.00000   0.00000   0.00000   2.07802
   R44        2.96036  -0.00001  -0.00006   0.00002  -0.00004   2.96032
   R45        2.07098  -0.00000  -0.00004   0.00002  -0.00002   2.07096
   R46        2.07352   0.00001  -0.00000   0.00002   0.00002   2.07354
   R47        2.96256   0.00002   0.00003   0.00007   0.00011   2.96267
   R48        2.06516  -0.00000  -0.00003   0.00002  -0.00001   2.06514
   R49        2.07118  -0.00000   0.00002  -0.00001   0.00001   2.07118
   R50        2.94459  -0.00001   0.00004  -0.00003   0.00001   2.94460
   R51        2.08779  -0.00001  -0.00005  -0.00000  -0.00005   2.08775
   R52        2.94500   0.00000  -0.00003   0.00001  -0.00001   2.94499
   R53        2.92679   0.00001   0.00002   0.00002   0.00004   2.92683
   R54        2.08579   0.00000   0.00000   0.00000   0.00000   2.08579
   R55        2.91741  -0.00000  -0.00001  -0.00000  -0.00001   2.91740
   R56        2.07045   0.00000  -0.00002   0.00002   0.00000   2.07045
   R57        2.08325  -0.00000  -0.00002   0.00001  -0.00001   2.08324
   R58        2.91505   0.00000   0.00000  -0.00000   0.00000   2.91506
   R59        2.07786   0.00000   0.00003  -0.00001   0.00001   2.07787
   R60        2.07065  -0.00000  -0.00004   0.00003  -0.00000   2.07065
   R61        2.92559   0.00001   0.00002  -0.00001   0.00002   2.92561
   R62        2.08096  -0.00000  -0.00002   0.00001  -0.00001   2.08095
   R63        2.08342  -0.00000  -0.00000  -0.00000  -0.00000   2.08342
   R64        2.91539  -0.00000   0.00000  -0.00002  -0.00001   2.91537
   R65        2.91536   0.00000  -0.00004   0.00004   0.00000   2.91537
   R66        2.08447  -0.00000  -0.00000   0.00001   0.00000   2.08448
   R67        2.07649  -0.00000  -0.00001   0.00001  -0.00000   2.07649
   R68        2.07360  -0.00000  -0.00002   0.00001  -0.00001   2.07359
   R69        2.07340  -0.00000  -0.00001   0.00000  -0.00001   2.07338
   R70        2.07695   0.00000   0.00001  -0.00000   0.00001   2.07696
   R71        2.07361  -0.00000  -0.00002   0.00001  -0.00001   2.07360
   R72        2.07073  -0.00000  -0.00002   0.00000  -0.00001   2.07072
   R73        2.07368  -0.00000  -0.00003   0.00001  -0.00002   2.07366
   R74        2.07369  -0.00000  -0.00000  -0.00001  -0.00001   2.07368
   R75        2.07115  -0.00000  -0.00001   0.00000  -0.00000   2.07115
    A1        1.93681   0.00000  -0.00001   0.00005   0.00004   1.93685
    A2        1.95262  -0.00000  -0.00008   0.00005  -0.00003   1.95259
    A3        1.94101  -0.00000  -0.00003   0.00002  -0.00001   1.94100
    A4        1.87067  -0.00000   0.00003  -0.00004  -0.00001   1.87067
    A5        1.87771  -0.00000   0.00009  -0.00006   0.00003   1.87774
    A6        1.88159  -0.00000   0.00001  -0.00003  -0.00002   1.88157
    A7        1.92646   0.00000   0.00010  -0.00006   0.00003   1.92650
    A8        1.93386   0.00000   0.00006   0.00001   0.00007   1.93393
    A9        1.98015  -0.00001   0.00000  -0.00004  -0.00004   1.98011
   A10        1.86720  -0.00000  -0.00007   0.00009   0.00002   1.86721
   A11        1.72944   0.00000  -0.00001  -0.00002  -0.00003   1.72941
   A12        2.01191   0.00000  -0.00008   0.00003  -0.00005   2.01186
   A13        1.99744  -0.00000   0.00011  -0.00009   0.00002   1.99747
   A14        1.81705  -0.00000  -0.00005  -0.00003  -0.00007   1.81697
   A15        1.82371   0.00000  -0.00001   0.00002   0.00001   1.82372
   A16        2.11151   0.00001  -0.00003   0.00004   0.00001   2.11152
   A17        1.83244  -0.00000  -0.00001   0.00003   0.00002   1.83245
   A18        1.85827   0.00000  -0.00001   0.00003   0.00002   1.85829
   A19        2.00594   0.00001   0.00000   0.00006   0.00006   2.00600
   A20        2.15725  -0.00001  -0.00002  -0.00005  -0.00007   2.15718
   A21        2.09969   0.00000   0.00004  -0.00004   0.00000   2.09969
   A22        1.98019  -0.00000  -0.00004   0.00003  -0.00001   1.98019
   A23        1.96282  -0.00000   0.00001  -0.00001  -0.00000   1.96282
   A24        1.83513  -0.00000   0.00001  -0.00002  -0.00001   1.83512
   A25        1.95736   0.00001  -0.00000   0.00002   0.00002   1.95738
   A26        1.86047  -0.00000  -0.00005   0.00001  -0.00004   1.86044
   A27        1.85574  -0.00000   0.00008  -0.00004   0.00004   1.85578
   A28        1.95009   0.00000   0.00003  -0.00003  -0.00000   1.95009
   A29        1.93376   0.00000  -0.00010   0.00005  -0.00004   1.93371
   A30        1.92503  -0.00000   0.00005  -0.00002   0.00003   1.92506
   A31        1.85638  -0.00000   0.00004  -0.00003   0.00001   1.85639
   A32        1.90325   0.00000  -0.00004   0.00005   0.00001   1.90326
   A33        1.89322   0.00000   0.00002  -0.00002  -0.00000   1.89322
   A34        1.91662   0.00000   0.00001  -0.00001  -0.00000   1.91662
   A35        1.94806  -0.00000  -0.00002  -0.00002  -0.00004   1.94803
   A36        1.93839  -0.00000  -0.00008   0.00009   0.00000   1.93839
   A37        1.87372   0.00000   0.00003  -0.00002   0.00000   1.87373
   A38        1.88536   0.00000   0.00004  -0.00003   0.00001   1.88537
   A39        1.89949   0.00000   0.00003  -0.00001   0.00002   1.89951
   A40        2.10240  -0.00000   0.00004  -0.00001   0.00003   2.10242
   A41        2.02031  -0.00000   0.00002  -0.00004  -0.00002   2.02030
   A42        2.15942   0.00000  -0.00006   0.00006  -0.00000   2.15942
   A43        2.12696   0.00000  -0.00004   0.00002  -0.00002   2.12694
   A44        2.09515  -0.00000   0.00010  -0.00007   0.00003   2.09518
   A45        2.05966   0.00000  -0.00005   0.00004  -0.00001   2.05966
   A46        2.12106   0.00000  -0.00004   0.00002  -0.00001   2.12105
   A47        2.09761  -0.00000   0.00005  -0.00005   0.00001   2.09762
   A48        2.05845   0.00000  -0.00001   0.00002   0.00000   2.05846
   A49        1.94315   0.00000   0.00002  -0.00002   0.00000   1.94315
   A50        1.94256   0.00000   0.00008  -0.00001   0.00006   1.94262
   A51        1.93072  -0.00000  -0.00003  -0.00002  -0.00005   1.93067
   A52        1.92937  -0.00001   0.00004  -0.00007  -0.00003   1.92934
   A53        1.84883  -0.00000  -0.00021   0.00016  -0.00005   1.84877
   A54        1.86547   0.00000   0.00011  -0.00003   0.00007   1.86554
   A55        1.83221   0.00001   0.00017  -0.00013   0.00004   1.83225
   A56        1.94772  -0.00001  -0.00006   0.00002  -0.00004   1.94768
   A57        1.92593   0.00000   0.00004   0.00000   0.00005   1.92597
   A58        1.94856  -0.00000  -0.00000  -0.00001  -0.00001   1.94855
   A59        1.89058  -0.00000  -0.00001   0.00007   0.00006   1.89064
   A60        1.91671  -0.00000  -0.00013   0.00004  -0.00009   1.91662
   A61        1.93931   0.00001   0.00009  -0.00004   0.00005   1.93936
   A62        1.94516   0.00000   0.00004  -0.00002   0.00002   1.94518
   A63        1.90954  -0.00000  -0.00012   0.00007  -0.00005   1.90948
   A64        1.89712   0.00000   0.00004  -0.00006  -0.00002   1.89710
   A65        1.93475   0.00000  -0.00008   0.00012   0.00004   1.93478
   A66        1.91527  -0.00000   0.00004  -0.00006  -0.00003   1.91525
   A67        1.85969   0.00000   0.00009  -0.00005   0.00004   1.85973
   A68        1.95062   0.00000  -0.00005   0.00006   0.00001   1.95063
   A69        1.91893  -0.00000   0.00008  -0.00006   0.00002   1.91894
   A70        1.91211  -0.00000  -0.00003  -0.00001  -0.00004   1.91207
   A71        1.92711   0.00000  -0.00001   0.00002   0.00001   1.92711
   A72        1.89570   0.00000  -0.00005   0.00006   0.00001   1.89572
   A73        1.85681  -0.00000   0.00007  -0.00007  -0.00000   1.85681
   A74        2.00263   0.00000   0.00002  -0.00002   0.00000   2.00263
   A75        1.90975  -0.00000  -0.00017   0.00010  -0.00007   1.90968
   A76        1.90456  -0.00000   0.00007  -0.00008  -0.00001   1.90455
   A77        1.88258  -0.00000  -0.00001   0.00003   0.00002   1.88260
   A78        1.90333   0.00000   0.00001   0.00002   0.00003   1.90335
   A79        1.85532   0.00000   0.00008  -0.00005   0.00003   1.85535
   A80        1.93673  -0.00000  -0.00004   0.00005   0.00001   1.93674
   A81        1.90121   0.00000   0.00000  -0.00003  -0.00003   1.90118
   A82        1.93701  -0.00000   0.00003  -0.00001   0.00002   1.93703
   A83        1.92176  -0.00000  -0.00000  -0.00001  -0.00001   1.92174
   A84        1.90048   0.00000  -0.00002   0.00003   0.00002   1.90049
   A85        1.86540  -0.00000   0.00003  -0.00004  -0.00000   1.86540
   A86        1.81784   0.00000   0.00000  -0.00004  -0.00004   1.81781
   A87        1.95650   0.00000   0.00006   0.00007   0.00013   1.95663
   A88        1.92995  -0.00001  -0.00008  -0.00003  -0.00011   1.92984
   A89        1.95754  -0.00000  -0.00001   0.00002   0.00001   1.95755
   A90        1.93426  -0.00000  -0.00008   0.00007  -0.00001   1.93425
   A91        1.86903   0.00000   0.00010  -0.00008   0.00002   1.86905
   A92        1.85034  -0.00000   0.00001  -0.00001  -0.00000   1.85034
   A93        1.92963   0.00000   0.00009  -0.00001   0.00008   1.92970
   A94        1.94458   0.00000  -0.00009   0.00006  -0.00003   1.94455
   A95        1.94947  -0.00000   0.00005  -0.00001   0.00004   1.94952
   A96        1.93110  -0.00000  -0.00012   0.00001  -0.00011   1.93100
   A97        1.86029   0.00000   0.00006  -0.00003   0.00002   1.86032
   A98        1.80798  -0.00000   0.00002  -0.00001   0.00000   1.80798
   A99        2.10782  -0.00001   0.00007  -0.00006   0.00001   2.10783
   A100       1.80862   0.00000   0.00009  -0.00004   0.00006   1.80868
   A101       2.06728   0.00000  -0.00015   0.00005  -0.00010   2.06717
   A102       1.84182  -0.00000   0.00006   0.00002   0.00008   1.84190
   A103       1.79740  -0.00000  -0.00005   0.00005  -0.00000   1.79740
   A104       2.10504  -0.00000   0.00015  -0.00011   0.00004   2.10508
   A105       1.91126   0.00000  -0.00010   0.00007  -0.00003   1.91123
   A106       1.82643   0.00000   0.00001   0.00004   0.00005   1.82648
   A107       1.92814   0.00000  -0.00006   0.00004  -0.00003   1.92811
   A108       1.81979  -0.00000  -0.00003  -0.00001  -0.00005   1.81975
   A109       1.85181  -0.00000   0.00004  -0.00002   0.00002   1.85183
   A110       2.07916   0.00002   0.00019  -0.00009   0.00010   2.07927
   A111       1.91410  -0.00001  -0.00002   0.00001  -0.00001   1.91409
   A112       1.84281  -0.00000  -0.00008   0.00006  -0.00002   1.84279
   A113       1.89713  -0.00001  -0.00008   0.00002  -0.00006   1.89708
   A114       1.87394  -0.00001  -0.00004   0.00001  -0.00003   1.87391
   A115       1.84160   0.00000   0.00001  -0.00001  -0.00000   1.84160
   A116       1.95173  -0.00000  -0.00005   0.00001  -0.00003   1.95170
   A117       1.92328   0.00000   0.00001  -0.00001   0.00001   1.92329
   A118       1.91964   0.00000   0.00002   0.00001   0.00003   1.91967
   A119       1.89840   0.00000   0.00001   0.00000   0.00002   1.89842
   A120       1.90697  -0.00000   0.00001  -0.00000   0.00001   1.90698
   A121       1.86145  -0.00000  -0.00000  -0.00002  -0.00002   1.86142
   A122       2.01028   0.00001   0.00002   0.00002   0.00004   2.01032
   A123       1.89361  -0.00000  -0.00002   0.00002  -0.00000   1.89361
   A124       1.90948  -0.00000   0.00000  -0.00001  -0.00000   1.90948
   A125       1.89241  -0.00001   0.00003  -0.00006  -0.00003   1.89238
   A126       1.89792  -0.00000  -0.00001   0.00001   0.00000   1.89793
   A127       1.85378   0.00000  -0.00002   0.00001  -0.00002   1.85377
   A128       1.92797  -0.00000   0.00005  -0.00005  -0.00000   1.92797
   A129       1.96273   0.00000  -0.00001   0.00002   0.00001   1.96274
   A130       1.87735  -0.00000  -0.00004   0.00003  -0.00002   1.87733
   A131       1.92647  -0.00000   0.00005  -0.00002   0.00002   1.92650
   A132       1.88197   0.00000  -0.00002   0.00001  -0.00001   1.88196
   A133       1.88438  -0.00000  -0.00003   0.00002  -0.00001   1.88437
   A134       1.93134   0.00000  -0.00003   0.00002  -0.00000   1.93134
   A135       1.94201   0.00000  -0.00005   0.00004  -0.00001   1.94200
   A136       1.94055   0.00000   0.00002  -0.00003  -0.00001   1.94054
   A137       1.88194  -0.00000   0.00000  -0.00000  -0.00000   1.88194
   A138       1.88091  -0.00000   0.00001  -0.00002  -0.00000   1.88091
   A139       1.88469   0.00000   0.00005  -0.00002   0.00002   1.88472
   A140       1.92897   0.00000   0.00000   0.00002   0.00002   1.92899
   A141       1.93395   0.00000   0.00001  -0.00000   0.00001   1.93396
   A142       1.95610  -0.00000  -0.00004   0.00003  -0.00001   1.95609
   A143       1.88035  -0.00000  -0.00000  -0.00002  -0.00002   1.88033
   A144       1.88390   0.00000  -0.00001   0.00001  -0.00000   1.88390
   A145       1.87782  -0.00000   0.00004  -0.00003   0.00001   1.87783
   A146       1.93539   0.00000   0.00000   0.00003   0.00004   1.93543
   A147       1.93308   0.00000   0.00001  -0.00001   0.00000   1.93308
   A148       1.95276  -0.00001  -0.00008   0.00000  -0.00008   1.95268
   A149       1.88201  -0.00000   0.00004  -0.00003   0.00001   1.88202
   A150       1.87760   0.00000   0.00002   0.00001   0.00003   1.87762
   A151       1.88020   0.00000   0.00001  -0.00001   0.00000   1.88020
    D1       -0.74286   0.00000   0.00013   0.00006   0.00018  -0.74267
    D2        1.32225   0.00000   0.00013   0.00014   0.00027   1.32252
    D3       -2.66575   0.00000   0.00008   0.00015   0.00023  -2.66552
    D4        1.34556   0.00000   0.00010   0.00008   0.00018   1.34574
    D5       -2.87252   0.00000   0.00011   0.00016   0.00027  -2.87225
    D6       -0.57734   0.00000   0.00006   0.00017   0.00023  -0.57711
    D7       -2.83243  -0.00000   0.00004   0.00009   0.00013  -2.83230
    D8       -0.76732  -0.00000   0.00005   0.00016   0.00021  -0.76711
    D9        1.52786  -0.00000  -0.00000   0.00017   0.00017   1.52803
   D10        1.08388   0.00001   0.00009   0.00017   0.00026   1.08414
   D11       -1.25851   0.00001   0.00009   0.00020   0.00029  -1.25822
   D12        3.07818   0.00001   0.00013   0.00017   0.00030   3.07847
   D13       -1.02159   0.00000   0.00001   0.00013   0.00014  -1.02145
   D14        2.91920   0.00000   0.00001   0.00017   0.00017   2.91937
   D15        0.97270   0.00000   0.00004   0.00014   0.00018   0.97288
   D16       -3.11709   0.00000   0.00013   0.00008   0.00021  -3.11688
   D17        0.82370   0.00000   0.00013   0.00012   0.00024   0.82395
   D18       -1.12279   0.00000   0.00016   0.00008   0.00025  -1.12254
   D19       -1.06727  -0.00000  -0.00006  -0.00008  -0.00014  -1.06741
   D20        3.09749  -0.00000  -0.00003  -0.00008  -0.00011   3.09738
   D21        1.04836  -0.00000  -0.00009  -0.00001  -0.00010   1.04826
   D22        1.03349  -0.00000   0.00005  -0.00010  -0.00005   1.03344
   D23       -1.08493   0.00000   0.00008  -0.00009  -0.00002  -1.08495
   D24       -3.13407   0.00000   0.00002  -0.00002  -0.00000  -3.13407
   D25        2.93726  -0.00000  -0.00005  -0.00006  -0.00010   2.93716
   D26        0.81884   0.00000  -0.00002  -0.00005  -0.00007   0.81877
   D27       -1.23030   0.00000  -0.00008   0.00002  -0.00006  -1.23036
   D28        1.29186   0.00000   0.00028  -0.00020   0.00009   1.29195
   D29       -1.07451   0.00000   0.00042  -0.00019   0.00023  -1.07427
   D30       -3.07147   0.00000   0.00038  -0.00019   0.00019  -3.07128
   D31       -0.74998  -0.00000   0.00017  -0.00009   0.00008  -0.74990
   D32       -3.11635   0.00000   0.00031  -0.00009   0.00023  -3.11612
   D33        1.16987   0.00000   0.00028  -0.00009   0.00018   1.17006
   D34       -2.73518   0.00000   0.00030  -0.00020   0.00010  -2.73507
   D35        1.18164   0.00000   0.00044  -0.00019   0.00025   1.18189
   D36       -0.81532   0.00000   0.00040  -0.00019   0.00021  -0.81512
   D37        0.87703  -0.00000  -0.00012  -0.00001  -0.00013   0.87690
   D38       -2.47979  -0.00000  -0.00002  -0.00018  -0.00019  -2.47998
   D39        3.07302  -0.00000  -0.00011  -0.00010  -0.00021   3.07281
   D40       -0.28380  -0.00000  -0.00000  -0.00027  -0.00027  -0.28407
   D41       -1.11215   0.00000  -0.00016  -0.00000  -0.00016  -1.11230
   D42        1.81422  -0.00000  -0.00005  -0.00017  -0.00022   1.81400
   D43       -0.57402   0.00000  -0.00038  -0.00007  -0.00044  -0.57447
   D44       -2.69429  -0.00000  -0.00040  -0.00010  -0.00050  -2.69479
   D45        1.50465   0.00000  -0.00051  -0.00002  -0.00053   1.50411
   D46       -2.85057   0.00001  -0.00046   0.00005  -0.00041  -2.85098
   D47        1.31235   0.00000  -0.00049   0.00001  -0.00047   1.31188
   D48       -0.77190   0.00000  -0.00060   0.00010  -0.00050  -0.77240
   D49        1.34728   0.00000  -0.00041  -0.00005  -0.00046   1.34682
   D50       -0.77299  -0.00000  -0.00044  -0.00008  -0.00052  -0.77351
   D51       -2.85724   0.00000  -0.00055  -0.00000  -0.00055  -2.85778
   D52       -2.95101  -0.00000   0.00021  -0.00018   0.00003  -2.95098
   D53       -0.70624   0.00000   0.00019  -0.00013   0.00005  -0.70619
   D54        1.30575  -0.00000   0.00029  -0.00019   0.00009   1.30584
   D55        0.39810  -0.00000   0.00012  -0.00001   0.00011   0.39821
   D56        2.64287   0.00001   0.00009   0.00003   0.00013   2.64299
   D57       -1.62832   0.00000   0.00019  -0.00003   0.00017  -1.62816
   D58       -2.87502   0.00000  -0.00005   0.00011   0.00006  -2.87496
   D59        0.14610  -0.00000  -0.00003   0.00004   0.00001   0.14611
   D60        0.04034   0.00000   0.00005  -0.00006  -0.00001   0.04033
   D61        3.06146  -0.00000   0.00007  -0.00013  -0.00006   3.06140
   D62        1.40613   0.00000  -0.00018   0.00007  -0.00011   1.40602
   D63       -0.66053   0.00000  -0.00019   0.00009  -0.00009  -0.66062
   D64       -2.75706   0.00000  -0.00018   0.00010  -0.00008  -2.75714
   D65       -0.84143  -0.00000  -0.00016   0.00003  -0.00013  -0.84156
   D66       -2.90810   0.00000  -0.00017   0.00006  -0.00010  -2.90820
   D67        1.27857  -0.00000  -0.00016   0.00007  -0.00010   1.27847
   D68       -2.86562  -0.00000  -0.00022   0.00006  -0.00016  -2.86578
   D69        1.35091  -0.00000  -0.00023   0.00009  -0.00014   1.35077
   D70       -0.74562  -0.00000  -0.00022   0.00009  -0.00013  -0.74575
   D71        0.75109  -0.00000  -0.00003   0.00005   0.00001   0.75110
   D72       -1.36727  -0.00000   0.00009  -0.00005   0.00004  -1.36723
   D73        2.89257  -0.00000   0.00005  -0.00000   0.00005   2.89262
   D74        3.00773  -0.00000  -0.00008   0.00010   0.00002   3.00775
   D75        0.88937  -0.00000   0.00005   0.00000   0.00005   0.88942
   D76       -1.13397   0.00000   0.00000   0.00005   0.00005  -1.13392
   D77       -1.24841   0.00000  -0.00009   0.00010   0.00001  -1.24840
   D78        2.91642   0.00000   0.00003   0.00000   0.00003   2.91645
   D79        0.89308   0.00000  -0.00002   0.00005   0.00004   0.89311
   D80       -2.96190   0.00000   0.00037  -0.00005   0.00032  -2.96158
   D81        1.24545   0.00000   0.00034   0.00000   0.00034   1.24579
   D82       -0.87768   0.00000   0.00038  -0.00004   0.00034  -0.87734
   D83       -0.84966   0.00000   0.00029  -0.00002   0.00027  -0.84938
   D84       -2.92549   0.00000   0.00026   0.00003   0.00029  -2.92520
   D85        1.23457   0.00000   0.00030  -0.00001   0.00029   1.23485
   D86        1.18874   0.00000   0.00031  -0.00004   0.00028   1.18902
   D87       -0.88710   0.00000   0.00029   0.00001   0.00029  -0.88680
   D88       -3.01022   0.00000   0.00032  -0.00003   0.00029  -3.00993
   D89        0.56389  -0.00000   0.00015  -0.00014   0.00001   0.56389
   D90       -2.62520   0.00000   0.00013  -0.00004   0.00009  -2.62510
   D91       -1.55880  -0.00000   0.00014  -0.00011   0.00003  -1.55877
   D92        1.53530   0.00000   0.00013  -0.00001   0.00012   1.53541
   D93        2.67929  -0.00000   0.00016  -0.00014   0.00002   2.67931
   D94       -0.50979   0.00000   0.00015  -0.00004   0.00011  -0.50969
   D95        1.55601  -0.00000  -0.00019   0.00004  -0.00016   1.55585
   D96       -0.59050  -0.00000  -0.00019   0.00001  -0.00018  -0.59068
   D97       -2.62518   0.00000  -0.00031   0.00014  -0.00016  -2.62534
   D98       -2.57959   0.00000  -0.00015   0.00002  -0.00014  -2.57972
   D99        1.55709   0.00000  -0.00016  -0.00000  -0.00016   1.55693
   D100      -0.47759   0.00000  -0.00027   0.00013  -0.00014  -0.47773
   D101      -0.56476  -0.00000  -0.00012  -0.00001  -0.00012  -0.56489
   D102      -2.71127  -0.00000  -0.00012  -0.00003  -0.00015  -2.71142
   D103       1.53723   0.00000  -0.00023   0.00010  -0.00013   1.53710
   D104      -0.14793   0.00000   0.00000   0.00009   0.00009  -0.14784
   D105       3.05183   0.00000  -0.00015   0.00018   0.00004   3.05187
   D106       3.04509  -0.00000   0.00001  -0.00002  -0.00001   3.04509
   D107      -0.03833  -0.00000  -0.00013   0.00008  -0.00006  -0.03839
   D108       1.08936  -0.00000  -0.00008   0.00015   0.00007   1.08944
   D109      -3.03267  -0.00001   0.00004   0.00003   0.00008  -3.03259
   D110      -0.96146   0.00000   0.00020  -0.00003   0.00017  -0.96129
   D111      -2.10145   0.00000  -0.00009   0.00025   0.00016  -2.10129
   D112       0.05970  -0.00000   0.00003   0.00014   0.00017   0.05987
   D113       2.13091   0.00000   0.00019   0.00008   0.00026   2.13117
   D114      -0.18968  -0.00000  -0.00013   0.00003  -0.00010  -0.18977
   D115       3.06978   0.00000  -0.00015   0.00010  -0.00005   3.06973
   D116       2.89489   0.00000   0.00002  -0.00007  -0.00005   2.89484
   D117      -0.12884   0.00000  -0.00000   0.00001   0.00000  -0.12884
   D118      -2.59801  -0.00000  -0.00005  -0.00015  -0.00021  -2.59822
   D119      -0.48440  -0.00000   0.00001  -0.00023  -0.00022  -0.48462
   D120       1.65176  -0.00000  -0.00016  -0.00017  -0.00033   1.65144
   D121       1.51656  -0.00000  -0.00019  -0.00007  -0.00026   1.51629
   D122      -2.65302  -0.00000  -0.00013  -0.00015  -0.00027  -2.65329
   D123      -0.51685  -0.00001  -0.00030  -0.00008  -0.00038  -0.51724
   D124      -0.49819  -0.00000  -0.00022  -0.00008  -0.00030  -0.49849
   D125       1.61542  -0.00000  -0.00015  -0.00016  -0.00031   1.61511
   D126      -2.53160  -0.00001  -0.00033  -0.00010  -0.00042  -2.53202
   D127      -2.98616   0.00001   0.00143   0.00044   0.00186  -2.98429
   D128       1.18397   0.00001   0.00139   0.00050   0.00189   1.18586
   D129      -0.92861   0.00001   0.00156   0.00041   0.00197  -0.92664
   D130      -0.55571  -0.00000  -0.00002   0.00021   0.00019  -0.55552
   D131      -2.70162  -0.00000   0.00014   0.00003   0.00017  -2.70145
   D132       1.55727  -0.00000   0.00008   0.00008   0.00016   1.55743
   D133       1.48872   0.00000   0.00015   0.00006   0.00022   1.48893
   D134      -0.65719   0.00000   0.00031  -0.00012   0.00019  -0.65699
   D135      -2.68149   0.00000   0.00025  -0.00007   0.00018  -2.68130
   D136      -2.69716   0.00000   0.00006   0.00017   0.00023  -2.69694
   D137       1.44012  -0.00000   0.00021  -0.00001   0.00020   1.44032
   D138      -0.58418   0.00000   0.00015   0.00004   0.00019  -0.58399
   D139       1.13983   0.00000   0.00010  -0.00011  -0.00001   1.13981
   D140      -3.00151   0.00000   0.00015  -0.00014   0.00001  -3.00149
   D141      -0.97173   0.00000   0.00020  -0.00017   0.00003  -0.97170
   D142      -3.01194   0.00000  -0.00009   0.00004  -0.00004  -3.01198
   D143      -0.87009   0.00000  -0.00003   0.00002  -0.00001  -0.87010
   D144       1.15969   0.00000   0.00001  -0.00002  -0.00000   1.15969
   D145      -0.96253   0.00000   0.00000   0.00002   0.00002  -0.96251
   D146       1.17933   0.00000   0.00005  -0.00001   0.00005   1.17938
   D147      -3.07408   0.00000   0.00010  -0.00005   0.00006  -3.07402
   D148      -0.95014  -0.00000  -0.00009   0.00007  -0.00002  -0.95017
   D149       1.15617  -0.00000  -0.00012   0.00005  -0.00007   1.15610
   D150      -3.08712  -0.00000  -0.00009   0.00002  -0.00007  -3.08719
   D151       1.18300  -0.00000  -0.00030   0.00020  -0.00010   1.18290
   D152      -2.99387  -0.00000  -0.00033   0.00018  -0.00014  -2.99401
   D153      -0.95398  -0.00000  -0.00030   0.00015  -0.00015  -0.95412
   D154      -3.09229  -0.00000  -0.00020   0.00016  -0.00004  -3.09233
   D155      -0.98598  -0.00000  -0.00023   0.00015  -0.00008  -0.98606
   D156       1.05392  -0.00000  -0.00020   0.00012  -0.00008   1.05384
   D157       0.09283  -0.00000   0.00046   0.00002   0.00049   0.09331
   D158       2.20866  -0.00000   0.00058  -0.00000   0.00058   2.20924
   D159      -2.00920   0.00000   0.00065  -0.00002   0.00064  -2.00856
   D160       2.21240   0.00000   0.00054   0.00009   0.00063   2.21303
   D161      -1.95495   0.00000   0.00065   0.00007   0.00072  -1.95423
   D162       0.11037   0.00001   0.00072   0.00005   0.00077   0.11115
   D163      -1.98291   0.00000   0.00060   0.00005   0.00065  -1.98226
   D164       0.13293   0.00000   0.00072   0.00002   0.00074   0.13367
   D165       2.19825   0.00001   0.00079   0.00001   0.00080   2.19905
   D166       0.41777   0.00000  -0.00039   0.00005  -0.00034   0.41743
   D167       2.80623  -0.00000  -0.00041  -0.00001  -0.00042   2.80580
   D168      -1.47741  -0.00000  -0.00052   0.00009  -0.00043  -1.47784
   D169      -1.68523   0.00000  -0.00054   0.00008  -0.00046  -1.68569
   D170       0.70323  -0.00000  -0.00056   0.00002  -0.00054   0.70268
   D171       2.70277  -0.00000  -0.00067   0.00012  -0.00055   2.70223
   D172       2.52854   0.00000  -0.00057   0.00012  -0.00044   2.52809
   D173      -1.36620  -0.00000  -0.00058   0.00006  -0.00053  -1.36672
   D174       0.63335  -0.00000  -0.00069   0.00016  -0.00053   0.63282
   D175       1.07091  -0.00001  -0.00024  -0.00012  -0.00036   1.07055
   D176      -2.94598  -0.00000  -0.00031  -0.00010  -0.00041  -2.94639
   D177      -0.96729  -0.00000  -0.00030  -0.00007  -0.00037  -0.96766
   D178      -1.18602  -0.00000  -0.00017  -0.00008  -0.00025  -1.18628
   D179       1.08026   0.00000  -0.00024  -0.00006  -0.00029   1.07997
   D180       3.05896   0.00000  -0.00023  -0.00003  -0.00026   3.05870
   D181       3.07368  -0.00000  -0.00013  -0.00016  -0.00029   3.07339
   D182      -0.94322  -0.00000  -0.00019  -0.00014  -0.00033  -0.94355
   D183       1.03548   0.00000  -0.00019  -0.00011  -0.00030   1.03518
   D184       1.18344   0.00000  -0.00015  -0.00005  -0.00019   1.18325
   D185      -1.01706   0.00000  -0.00018  -0.00001  -0.00019  -1.01725
   D186      -2.99353   0.00000  -0.00014  -0.00003  -0.00017  -2.99370
   D187      -1.07544  -0.00000  -0.00007  -0.00008  -0.00015  -1.07558
   D188       3.00725  -0.00000  -0.00010  -0.00004  -0.00014   3.00710
   D189       1.03078   0.00000  -0.00006  -0.00007  -0.00013   1.03065
   D190      -3.05817  -0.00000  -0.00007  -0.00007  -0.00014  -3.05831
   D191       1.02451  -0.00000  -0.00010  -0.00003  -0.00013   1.02438
   D192      -0.95195   0.00000  -0.00006  -0.00006  -0.00012  -0.95207
   D193       0.94764   0.00000  -0.00043   0.00036  -0.00006   0.94758
   D194       3.03645   0.00000  -0.00036   0.00034  -0.00003   3.03643
   D195      -1.14868   0.00000  -0.00040   0.00033  -0.00007  -1.14876
   D196      -2.97681  -0.00000  -0.00037   0.00030  -0.00007  -2.97688
   D197      -0.88800   0.00000  -0.00031   0.00028  -0.00003  -0.88803
   D198       1.21005  -0.00000  -0.00034   0.00027  -0.00008   1.20997
   D199      -1.01454  -0.00000  -0.00041   0.00029  -0.00012  -1.01466
   D200       1.07428  -0.00000  -0.00035   0.00027  -0.00008   1.07419
   D201      -3.11086  -0.00000  -0.00039   0.00026  -0.00013  -3.11099
   D202       2.93723   0.00000   0.00048  -0.00001   0.00047   2.93770
   D203       0.82350   0.00000   0.00049  -0.00002   0.00047   0.82397
   D204      -1.22385   0.00000   0.00047   0.00001   0.00048  -1.22337
   D205      -1.13742   0.00000   0.00054  -0.00005   0.00049  -1.13693
   D206       3.03203   0.00000   0.00055  -0.00006   0.00049   3.03252
   D207       0.98469   0.00000   0.00053  -0.00004   0.00050   0.98518
   D208       0.84682  -0.00000   0.00049  -0.00005   0.00045   0.84726
   D209      -1.26692  -0.00000   0.00050  -0.00006   0.00044  -1.26647
   D210       2.96892  -0.00000   0.00049  -0.00003   0.00045   2.96937
   D211      -3.09199   0.00000   0.00021   0.00044   0.00066  -3.09134
   D212      -0.96779   0.00000   0.00024   0.00040   0.00064  -0.96714
   D213       1.04751   0.00000   0.00020   0.00042   0.00062   1.04813
   D214      -0.96391   0.00000   0.00021   0.00045   0.00065  -0.96325
   D215       1.16030   0.00000   0.00023   0.00040   0.00064   1.16094
   D216      -3.10759   0.00000   0.00020   0.00042   0.00062  -3.10697
   D217       1.06180   0.00000   0.00021   0.00042   0.00064   1.06244
   D218      -3.09718   0.00000   0.00024   0.00038   0.00062  -3.09655
   D219      -1.08188   0.00000   0.00020   0.00040   0.00060  -1.08128
   D220       2.98805  -0.00000   0.00016  -0.00001   0.00016   2.98820
   D221      -1.13427   0.00000   0.00025  -0.00006   0.00019  -1.13408
   D222       0.93824   0.00000   0.00018  -0.00001   0.00018   0.93841
   D223       0.86319  -0.00000   0.00016  -0.00001   0.00015   0.86334
   D224       3.02406  -0.00000   0.00025  -0.00006   0.00019   3.02425
   D225      -1.18662  -0.00000   0.00018  -0.00001   0.00017  -1.18645
   D226      -1.14530   0.00000   0.00018   0.00001   0.00019  -1.14511
   D227       1.01557   0.00000   0.00027  -0.00004   0.00022   1.01579
   D228       3.08808   0.00000   0.00020   0.00001   0.00021   3.08828
   D229       1.08885   0.00000   0.00017   0.00013   0.00030   1.08915
   D230      -1.00307   0.00000   0.00022   0.00009   0.00030  -1.00277
   D231      -3.10466   0.00000   0.00018   0.00011   0.00028  -3.10438
   D232      -1.09278  -0.00000   0.00012   0.00015   0.00027  -1.09251
   D233       3.09848  -0.00000   0.00017   0.00011   0.00028   3.09876
   D234       0.99689  -0.00000   0.00013   0.00013   0.00026   0.99715
   D235       3.13582   0.00000   0.00013   0.00014   0.00027   3.13609
   D236       1.04389   0.00000   0.00018   0.00010   0.00028   1.04417
   D237      -1.05770   0.00000   0.00014   0.00012   0.00026  -1.05744
   D238      -1.04533  -0.00000   0.00038  -0.00005   0.00033  -1.04500
   D239      -3.12846   0.00000   0.00038  -0.00004   0.00034  -3.12812
   D240       1.05684   0.00000   0.00035  -0.00001   0.00033   1.05718
   D241       1.11637   0.00000   0.00047  -0.00012   0.00035   1.11672
   D242      -0.96676   0.00000   0.00047  -0.00011   0.00036  -0.96640
   D243      -3.06465   0.00000   0.00044  -0.00008   0.00036  -3.06429
   D244      -3.11371   0.00000   0.00046  -0.00011   0.00035  -3.11336
   D245       1.08634   0.00000   0.00046  -0.00010   0.00036   1.08670
   D246      -1.01154   0.00000   0.00043  -0.00007   0.00036  -1.01119
         Item               Value     Threshold  Converged?
 Maximum Force            0.000020     0.000450     YES
 RMS     Force            0.000004     0.000300     YES
 Maximum Displacement     0.003035     0.001800     NO 
 RMS     Displacement     0.000557     0.001200     YES
 Predicted change in Energy=-6.710077D-08
 Lowest energy point so far.  Saving SCF results.
 GradGradGradGradGradGradGradGradGradGradGradGradGradGradGradGradGradGrad

 Leave Link  103 at Mon Jul 28 19:31:02 2025, MaxMem=  1073741824 cpu:               1.2 elap:               0.2
 (Enter /app/gaussian/g16/l202.exe)
 Stoichiometry    C27H44O
 Framework group  C1[X(C27H44O)]
 Deg. of freedom   210
 Full point group                 C1      NOp   1
 RotChk:  IX=0 Diff= 4.77D-04
 Largest Abelian subgroup         C1      NOp   1
 Largest concise Abelian subgroup C1      NOp   1
                         Standard orientation:                         
 ---------------------------------------------------------------------
 Center     Atomic      Atomic             Coordinates (Angstroms)
 Number     Number       Type             X           Y           Z
 ---------------------------------------------------------------------
      1          6           0       -1.085179   -0.475876   -0.658537
      2          6           0       -0.646209    0.891785   -0.074916
      3          6           0        0.247030    0.682198    1.190150
      4          6           0        1.534389   -0.054981    0.929089
      5          6           0        2.369108    0.492176   -0.241232
      6          6           0        3.560485   -0.455424   -0.660553
      7          6           0        3.074992   -1.625585   -1.569484
      8          6           0        4.202799   -1.105720    0.577149
      9          6           0        3.454536   -1.399096    1.662326
     10          6           0        2.068081   -0.956137    1.785680
     11          6           0        5.668858   -1.436192    0.457057
     12          6           0        6.516249   -0.162755    0.244153
     13          8           0        7.662879   -0.600167   -0.577325
     14          6           0        5.705739    0.948305   -0.455624
     15          6           0        4.662401    0.360308   -1.421441
     16          6           0        1.487111    0.903995   -1.461609
     17          6           0        0.198279    1.677592   -1.097150
     18          6           0       -0.741220    0.196882    2.272267
     19          6           0       -2.079632    0.934092    1.927007
     20          6           0       -1.819639    1.694988    0.581137
     21          6           0       -3.047564    2.146607   -0.265190
     22          6           0       -3.961631    1.094024   -0.961772
     23          6           0       -4.832800    0.162253   -0.092141
     24          6           0       -5.872854   -0.603084   -0.936003
     25          6           0       -6.835969   -1.509430   -0.131169
     26          6           0       -7.959020   -2.046544   -1.042399
     27          6           0       -6.104245   -2.676055    0.564266
     28          6           0       -3.900236    3.147166    0.553738
     29          1           0       -0.251958   -1.186722   -0.660879
     30          1           0       -1.893407   -0.927264   -0.075644
     31          1           0       -1.434709   -0.372174   -1.691605
     32          1           0        0.556894    1.705386    1.483572
     33          1           0        2.827628    1.427170    0.141941
     34          1           0        3.879171   -2.360068   -1.690663
     35          1           0        2.801196   -1.272629   -2.569959
     36          1           0        2.213299   -2.136491   -1.126690
     37          1           0        3.896773   -1.934324    2.500840
     38          1           0        1.503710   -1.285284    2.654101
     39          1           0        6.024101   -1.992480    1.330656
     40          1           0        5.852076   -2.071269   -0.422407
     41          1           0        6.900487    0.205675    1.205387
     42          1           0        8.335206    0.106951   -0.649062
     43          1           0        6.392599    1.622829   -0.985177
     44          1           0        5.202033    1.553291    0.311445
     45          1           0        4.196408    1.157379   -2.012471
     46          1           0        5.176795   -0.295133   -2.136409
     47          1           0        1.195002    0.008378   -2.017945
     48          1           0        2.087286    1.512051   -2.149923
     49          1           0        0.454319    2.659695   -0.669392
     50          1           0       -0.373978    1.869102   -2.016418
     51          1           0       -0.390893    0.428591    3.284489
     52          1           0       -0.869782   -0.891418    2.216800
     53          1           0       -2.899609    0.217641    1.834228
     54          1           0       -2.365553    1.636097    2.718655
     55          1           0       -1.350539    2.652999    0.868739
     56          1           0       -2.614117    2.724922   -1.099425
     57          1           0       -3.363337    0.479870   -1.643883
     58          1           0       -4.642288    1.673535   -1.606885
     59          1           0       -5.360502    0.744501    0.676984
     60          1           0       -4.198271   -0.556453    0.438407
     61          1           0       -6.472709    0.128846   -1.499097
     62          1           0       -5.352726   -1.218714   -1.688313
     63          1           0       -7.303720   -0.887060    0.650240
     64          1           0       -7.541993   -2.671203   -1.844469
     65          1           0       -8.517593   -1.226598   -1.511171
     66          1           0       -8.670170   -2.660279   -0.475464
     67          1           0       -5.596931   -3.309321   -0.177072
     68          1           0       -6.812772   -3.307839    1.114638
     69          1           0       -5.351593   -2.323032    1.278146
     70          1           0       -3.286909    3.984958    0.908814
     71          1           0       -4.710845    3.560446   -0.059681
     72          1           0       -4.354265    2.673817    1.431815
 ---------------------------------------------------------------------
 Rotational constants (GHZ):           0.4106646           0.0649266           0.0627662
 Leave Link  202 at Mon Jul 28 19:31:02 2025, MaxMem=  1073741824 cpu:               0.1 elap:               0.0
 (Enter /app/gaussian/g16/l301.exe)
 Standard basis: 6-31+G (6D, 7F)
 Ernie: Thresh=  0.10000D-02 Tol=  0.10000D-05 Strict=F.
 There are   452 symmetry adapted cartesian basis functions of A   symmetry.
 There are   452 symmetry adapted basis functions of A   symmetry.
   452 basis functions,   904 primitive gaussians,   452 cartesian basis functions
   107 alpha electrons      107 beta electrons
       nuclear repulsion energy      2772.4686330479 Hartrees.
 IExCor=  402 DFT=T Ex+Corr=B3LYP ExCW=0 ScaHFX=  0.200000
 ScaDFX=  0.800000  0.720000  1.000000  0.810000 ScalE2=  1.000000  1.000000
 IRadAn=      5 IRanWt=     -1 IRanGd=            0 ICorTp=0 IEmpDi=  4
 NAtoms=   72 NActive=   72 NUniq=   72 SFac= 1.00D+00 NAtFMM=   60 NAOKFM=T Big=T
 Integral buffers will be    131072 words long.
 Raffenetti 2 integral format.
 Two-electron integral symmetry is turned on.
 Leave Link  301 at Mon Jul 28 19:31:02 2025, MaxMem=  1073741824 cpu:               0.4 elap:               0.1
 (Enter /app/gaussian/g16/l302.exe)
 NPDir=0 NMtPBC=     1 NCelOv=     1 NCel=       1 NClECP=     1 NCelD=      1
         NCelK=      1 NCelE2=     1 NClLst=     1 CellRange=     0.0.
 One-electron integrals computed using PRISM.
 One-electron integral symmetry used in STVInt
 NBasis=   452 RedAO= T EigKep=  1.31D-06  NBF=   452
 NBsUse=   449 1.00D-06 EigRej=  7.65D-07 NBFU=   449
 Precomputing XC quadrature grid using
 IXCGrd= 4 IRadAn=           5 IRanWt=          -1 IRanGd=           0 AccXCQ= 0.00D+00.
 Generated NRdTot=       0 NPtTot=           0 NUsed=           0 NTot=          32
 NSgBfM=   438   438   438   438   438 MxSgAt=    72 MxSgA2=    72.
 Leave Link  302 at Mon Jul 28 19:31:03 2025, MaxMem=  1073741824 cpu:              10.6 elap:               1.3
 (Enter /app/gaussian/g16/l303.exe)
 DipDrv:  MaxL=1.
 Leave Link  303 at Mon Jul 28 19:31:03 2025, MaxMem=  1073741824 cpu:               0.4 elap:               0.1
 (Enter /app/gaussian/g16/l401.exe)
 Initial guess from the checkpoint file:  "/work/scr/Gau-256556.chk"
 B after Tr=     0.000000    0.000000   -0.000000
         Rot=    1.000000    0.000162    0.000003   -0.000005 Ang=   0.02 deg.
 Guess basis will be translated and rotated to current coordinates.
 JPrj=2 DoOrth=T DoCkMO=T.
 Leave Link  401 at Mon Jul 28 19:31:04 2025, MaxMem=  1073741824 cpu:               3.4 elap:               0.5
 (Enter /app/gaussian/g16/l502.exe)
 Integral symmetry usage will be decided dynamically.
 Closed shell SCF:
 Using DIIS extrapolation, IDIIS=  1040.
 NGot=  1073741824 LenX=  1073322182 LenY=  1073117426
 Requested convergence on RMS density matrix=1.00D-08 within 128 cycles.
 Requested convergence on MAX density matrix=1.00D-06.
 Requested convergence on             energy=1.00D-06.
 No special actions if energy rises.
 Fock matrices will be formed incrementally for  20 cycles.

 Cycle   1  Pass 1  IDiag  1:
 FoFJK:  IHMeth= 1 ICntrl=       0 DoSepK=F KAlg= 0 I1Cent=           0 FoldK=F
 IRaf= 990000000 NMat=       1 IRICut=       1 DoRegI=T DoRafI=F ISym2E= 0 IDoP0=0 IntGTp=1.
 FoFCou: FMM=T IPFlag=           0 FMFlag=      100000 FMFlg1=        2001
         NFxFlg=           0 DoJE=F BraDBF=F KetDBF=F FulRan=T
         wScrn=  0.000000 ICntrl=         0 IOpCl=  0 I1Cent=           0 NGrid=           0
         NMat0=    1 NMatS0=      1 NMatT0=    0 NMatD0=    1 NMtDS0=    0 NMtDT0=    0
 Symmetry not used in FoFCou.
 FMM levels:  10  Number of levels for PrismC:   9
 E= -1130.32504677738    
 DIIS: error= 8.11D-05 at cycle   1 NSaved=   1.
 NSaved= 1 IEnMin= 1 EnMin= -1130.32504677738     IErMin= 1 ErrMin= 8.11D-05
 ErrMax= 8.11D-05  0.00D+00 EMaxC= 1.00D-01 BMatC= 1.62D-06 BMatP= 1.62D-06
 IDIUse=1 WtCom= 1.00D+00 WtEn= 0.00D+00
 Coeff-Com:  0.100D+01
 Coeff:      0.100D+01
 Gap=     0.456 Goal=   None    Shift=    0.000
 RMSDP=6.58D-05 MaxDP=4.69D-03              OVMax= 3.47D-04

 Cycle   2  Pass 1  IDiag  1:
 RMSU=  6.40D-05    CP:  1.00D+00
 E= -1130.32504877750     Delta-E=       -0.000002000128 Rises=F Damp=F
 DIIS: error= 3.76D-06 at cycle   2 NSaved=   2.
 NSaved= 2 IEnMin= 2 EnMin= -1130.32504877750     IErMin= 2 ErrMin= 3.76D-06
 ErrMax= 3.76D-06  0.00D+00 EMaxC= 1.00D-01 BMatC= 8.84D-09 BMatP= 1.62D-06
 IDIUse=1 WtCom= 1.00D+00 WtEn= 0.00D+00
 Coeff-Com: -0.285D-01 0.103D+01
 Coeff:     -0.285D-01 0.103D+01
 Gap=     0.172 Goal=   None    Shift=    0.000
 RMSDP=6.75D-06 MaxDP=2.90D-04 DE=-2.00D-06 OVMax= 3.93D-05

 Cycle   3  Pass 1  IDiag  1:
 RMSU=  6.60D-06    CP:  1.00D+00  1.02D+00
 E= -1130.32504878801     Delta-E=       -0.000000010505 Rises=F Damp=F
 DIIS: error= 2.54D-06 at cycle   3 NSaved=   3.
 NSaved= 3 IEnMin= 3 EnMin= -1130.32504878801     IErMin= 3 ErrMin= 2.54D-06
 ErrMax= 2.54D-06  0.00D+00 EMaxC= 1.00D-01 BMatC= 7.17D-09 BMatP= 8.84D-09
 IDIUse=1 WtCom= 1.00D+00 WtEn= 0.00D+00
 Coeff-Com: -0.176D-01 0.507D+00 0.510D+00
 Coeff:     -0.176D-01 0.507D+00 0.510D+00
 Gap=     0.172 Goal=   None    Shift=    0.000
 RMSDP=3.02D-06 MaxDP=1.65D-04 DE=-1.05D-08 OVMax= 2.37D-05

 Cycle   4  Pass 1  IDiag  1:
 RMSU=  2.42D-06    CP:  1.00D+00  1.03D+00  7.52D-01
 E= -1130.32504879433     Delta-E=       -0.000000006316 Rises=F Damp=F
 DIIS: error= 1.26D-06 at cycle   4 NSaved=   4.
 NSaved= 4 IEnMin= 4 EnMin= -1130.32504879433     IErMin= 4 ErrMin= 1.26D-06
 ErrMax= 1.26D-06  0.00D+00 EMaxC= 1.00D-01 BMatC= 8.24D-10 BMatP= 7.17D-09
 IDIUse=1 WtCom= 1.00D+00 WtEn= 0.00D+00
 Coeff-Com: -0.376D-02 0.746D-01 0.256D+00 0.673D+00
 Coeff:     -0.376D-02 0.746D-01 0.256D+00 0.673D+00
 Gap=     0.172 Goal=   None    Shift=    0.000
 RMSDP=9.62D-07 MaxDP=5.37D-05 DE=-6.32D-09 OVMax= 1.25D-05

 Cycle   5  Pass 1  IDiag  1:
 RMSU=  6.94D-07    CP:  1.00D+00  1.03D+00  7.86D-01  7.59D-01
 E= -1130.32504879474     Delta-E=       -0.000000000412 Rises=F Damp=F
 DIIS: error= 6.81D-07 at cycle   5 NSaved=   5.
 NSaved= 5 IEnMin= 5 EnMin= -1130.32504879474     IErMin= 5 ErrMin= 6.81D-07
 ErrMax= 6.81D-07  0.00D+00 EMaxC= 1.00D-01 BMatC= 2.32D-10 BMatP= 8.24D-10
 IDIUse=1 WtCom= 1.00D+00 WtEn= 0.00D+00
 Coeff-Com: -0.525D-03-0.696D-02 0.110D+00 0.434D+00 0.463D+00
 Coeff:     -0.525D-03-0.696D-02 0.110D+00 0.434D+00 0.463D+00
 Gap=     0.172 Goal=   None    Shift=    0.000
 RMSDP=4.25D-07 MaxDP=3.55D-05 DE=-4.12D-10 OVMax= 5.15D-06

 Cycle   6  Pass 1  IDiag  1:
 RMSU=  2.76D-07    CP:  1.00D+00  1.03D+00  7.90D-01  7.86D-01  6.30D-01
 E= -1130.32504879535     Delta-E=       -0.000000000615 Rises=F Damp=F
 DIIS: error= 9.63D-08 at cycle   6 NSaved=   6.
 NSaved= 6 IEnMin= 6 EnMin= -1130.32504879535     IErMin= 6 ErrMin= 9.63D-08
 ErrMax= 9.63D-08  0.00D+00 EMaxC= 1.00D-01 BMatC= 4.34D-12 BMatP= 2.32D-10
 IDIUse=1 WtCom= 1.00D+00 WtEn= 0.00D+00
 Coeff-Com: -0.603D-05-0.748D-02 0.317D-01 0.143D+00 0.197D+00 0.636D+00
 Coeff:     -0.603D-05-0.748D-02 0.317D-01 0.143D+00 0.197D+00 0.636D+00
 Gap=     0.172 Goal=   None    Shift=    0.000
 RMSDP=1.24D-07 MaxDP=1.56D-05 DE=-6.15D-10 OVMax= 9.12D-07

 Cycle   7  Pass 1  IDiag  1:
 RMSU=  6.74D-08    CP:  1.00D+00  1.03D+00  7.94D-01  7.92D-01  6.36D-01
                    CP:  7.02D-01
 E= -1130.32504879523     Delta-E=        0.000000000126 Rises=F Damp=F
 DIIS: error= 4.81D-08 at cycle   7 NSaved=   7.
 NSaved= 7 IEnMin= 6 EnMin= -1130.32504879535     IErMin= 7 ErrMin= 4.81D-08
 ErrMax= 4.81D-08  0.00D+00 EMaxC= 1.00D-01 BMatC= 1.37D-12 BMatP= 4.34D-12
 IDIUse=1 WtCom= 1.00D+00 WtEn= 0.00D+00
 Coeff-Com:  0.539D-04-0.401D-02 0.760D-02 0.421D-01 0.718D-01 0.399D+00
 Coeff-Com:  0.483D+00
 Coeff:      0.539D-04-0.401D-02 0.760D-02 0.421D-01 0.718D-01 0.399D+00
 Coeff:      0.483D+00
 Gap=     0.172 Goal=   None    Shift=    0.000
 RMSDP=3.13D-08 MaxDP=2.78D-06 DE= 1.26D-10 OVMax= 2.84D-07

 Cycle   8  Pass 1  IDiag  1:
 RMSU=  2.11D-08    CP:  1.00D+00  1.03D+00  7.95D-01  7.91D-01  6.23D-01
                    CP:  7.43D-01  8.08D-01
 E= -1130.32504879513     Delta-E=        0.000000000096 Rises=F Damp=F
 DIIS: error= 6.53D-09 at cycle   8 NSaved=   8.
 NSaved= 8 IEnMin= 6 EnMin= -1130.32504879535     IErMin= 8 ErrMin= 6.53D-09
 ErrMax= 6.53D-09  0.00D+00 EMaxC= 1.00D-01 BMatC= 3.08D-14 BMatP= 1.37D-12
 IDIUse=1 WtCom= 1.00D+00 WtEn= 0.00D+00
 Coeff-Com:  0.213D-04-0.100D-02 0.510D-03 0.546D-02 0.126D-01 0.111D+00
 Coeff-Com:  0.191D+00 0.681D+00
 Coeff:      0.213D-04-0.100D-02 0.510D-03 0.546D-02 0.126D-01 0.111D+00
 Coeff:      0.191D+00 0.681D+00
 Gap=     0.172 Goal=   None    Shift=    0.000
 RMSDP=1.38D-08 MaxDP=1.68D-06 DE= 9.64D-11 OVMax= 5.86D-08

 Cycle   9  Pass 1  IDiag  1:
 RMSU=  8.01D-09    CP:  1.00D+00  1.03D+00  7.95D-01  7.91D-01  6.28D-01
                    CP:  7.57D-01  7.29D-01  8.66D-01
 E= -1130.32504879517     Delta-E=       -0.000000000043 Rises=F Damp=F
 DIIS: error= 2.33D-09 at cycle   9 NSaved=   9.
 NSaved= 9 IEnMin= 6 EnMin= -1130.32504879535     IErMin= 9 ErrMin= 2.33D-09
 ErrMax= 2.33D-09  0.00D+00 EMaxC= 1.00D-01 BMatC= 7.58D-15 BMatP= 3.08D-14
 IDIUse=1 WtCom= 1.00D+00 WtEn= 0.00D+00
 Coeff-Com:  0.590D-05-0.105D-03-0.571D-03-0.173D-02-0.115D-02 0.158D-01
 Coeff-Com:  0.499D-01 0.380D+00 0.558D+00
 Coeff:      0.590D-05-0.105D-03-0.571D-03-0.173D-02-0.115D-02 0.158D-01
 Coeff:      0.499D-01 0.380D+00 0.558D+00
 Gap=     0.172 Goal=   None    Shift=    0.000
 RMSDP=6.07D-09 MaxDP=5.98D-07 DE=-4.27D-11 OVMax= 4.31D-08

 SCF Done:  E(RB3LYP) =  -1130.32504880     A.U. after    9 cycles
            NFock=  9  Conv=0.61D-08     -V/T= 2.0059
 KE= 1.123703178441D+03 PE=-8.164358013769D+03 EE= 3.137861153485D+03
 Leave Link  502 at Mon Jul 28 19:33:53 2025, MaxMem=  1073741824 cpu:            1351.3 elap:             169.5
 (Enter /app/gaussian/g16/l701.exe)
 ... and contract with generalized density number  0.
 Compute integral first derivatives.
 Leave Link  701 at Mon Jul 28 19:33:54 2025, MaxMem=  1073741824 cpu:               1.8 elap:               0.2
 (Enter /app/gaussian/g16/l702.exe)
 L702 exits ... SP integral derivatives will be done elsewhere.
 Leave Link  702 at Mon Jul 28 19:33:54 2025, MaxMem=  1073741824 cpu:               0.2 elap:               0.0
 (Enter /app/gaussian/g16/l703.exe)
 Integral derivatives from FoFJK, PRISM(SPDF).
 Compute integral first derivatives, UseDBF=F ICtDFT=           0.
 Calling FoFJK, ICntrl=      2127 FMM=T ISym2X=0 I1Cent= 0 IOpClX= 0 NMat=1 NMatS=1 NMatT=0.
 FoFJK:  IHMeth= 1 ICntrl=    2127 DoSepK=F KAlg= 0 I1Cent=           0 FoldK=F
 IRaf=         0 NMat=       1 IRICut=       1 DoRegI=T DoRafI=F ISym2E= 0 IDoP0=0 IntGTp=1.
 FoFCou: FMM=T IPFlag=           0 FMFlag=      100000 FMFlg1=        2001
         NFxFlg=           0 DoJE=F BraDBF=F KetDBF=F FulRan=T
         wScrn=  0.000000 ICntrl=      2127 IOpCl=  0 I1Cent=           0 NGrid=           0
         NMat0=    1 NMatS0=      1 NMatT0=    0 NMatD0=    1 NMtDS0=    0 NMtDT0=    0
 Symmetry not used in FoFCou.
 FMM levels:  10  Number of levels for PrismC:   9
 Leave Link  703 at Mon Jul 28 19:34:43 2025, MaxMem=  1073741824 cpu:             394.5 elap:              49.5
 (Enter /app/gaussian/g16/l716.exe)
 Dipole        =-1.93063726D-01 9.10079643D-01 1.45490002D-01
 ***** Axes restored to original set *****
 -------------------------------------------------------------------
 Center     Atomic                   Forces (Hartrees/Bohr)
 Number     Number              X              Y              Z
 -------------------------------------------------------------------
      1        6           0.000002264    0.000008320   -0.000002472
      2        6           0.000010119   -0.000011720    0.000022704
      3        6          -0.000011012    0.000017383   -0.000006251
      4        6           0.000008225   -0.000010355    0.000004168
      5        6          -0.000011017   -0.000011982   -0.000018076
      6        6           0.000011968   -0.000005236    0.000015979
      7        6           0.000000587    0.000000572   -0.000003871
      8        6          -0.000018060    0.000018745   -0.000004766
      9        6           0.000017224   -0.000005107    0.000004231
     10        6          -0.000016250    0.000006121   -0.000002996
     11        6           0.000016535   -0.000002936    0.000000307
     12        6           0.000000038   -0.000001406    0.000001466
     13        8          -0.000002923   -0.000005140   -0.000001219
     14        6           0.000001697   -0.000005811   -0.000011008
     15        6          -0.000008071    0.000007269    0.000006535
     16        6           0.000001345    0.000009872    0.000006346
     17        6          -0.000003346    0.000003700   -0.000005397
     18        6           0.000008010   -0.000011789    0.000006592
     19        6          -0.000005769    0.000014780    0.000002513
     20        6           0.000001413   -0.000014438   -0.000015864
     21        6          -0.000003458    0.000005681    0.000006666
     22        6           0.000001055    0.000001317   -0.000001454
     23        6           0.000004114   -0.000005921    0.000000925
     24        6          -0.000003006    0.000002529    0.000002580
     25        6           0.000002945   -0.000006010   -0.000000799
     26        6          -0.000005578    0.000001211    0.000001882
     27        6          -0.000001981   -0.000000944   -0.000001362
     28        6          -0.000000033    0.000001338   -0.000002261
     29        1          -0.000003480   -0.000001583   -0.000002790
     30        1          -0.000003474   -0.000005075   -0.000001338
     31        1          -0.000001143   -0.000003507   -0.000003430
     32        1          -0.000000164    0.000002265   -0.000001105
     33        1           0.000002333    0.000001535    0.000005306
     34        1           0.000000175   -0.000001589   -0.000000297
     35        1           0.000000491   -0.000003657    0.000001046
     36        1          -0.000000713   -0.000001562    0.000000693
     37        1          -0.000002918   -0.000000255   -0.000003467
     38        1           0.000002389    0.000000108   -0.000000544
     39        1          -0.000006192   -0.000001218   -0.000002495
     40        1           0.000000140   -0.000000838    0.000001097
     41        1           0.000002416    0.000000507   -0.000000280
     42        1          -0.000003943    0.000002752    0.000000869
     43        1           0.000002200    0.000002359    0.000002003
     44        1           0.000002602    0.000001368    0.000005207
     45        1           0.000000426   -0.000002053   -0.000000380
     46        1           0.000001484   -0.000003633   -0.000001033
     47        1           0.000002120   -0.000002362   -0.000002178
     48        1           0.000000067   -0.000001551   -0.000000669
     49        1           0.000000084    0.000001404    0.000002586
     50        1           0.000002190    0.000002520    0.000002556
     51        1           0.000001386    0.000004417   -0.000002363
     52        1          -0.000003095    0.000001813   -0.000002622
     53        1           0.000000320    0.000000796    0.000001533
     54        1          -0.000000286   -0.000000694   -0.000001382
     55        1           0.000002659    0.000004613    0.000002173
     56        1          -0.000000188    0.000001126    0.000001756
     57        1          -0.000001059   -0.000002291    0.000001031
     58        1           0.000000681    0.000000791   -0.000000224
     59        1          -0.000000915    0.000002393   -0.000000116
     60        1           0.000000314    0.000000826   -0.000002468
     61        1           0.000001195   -0.000001265   -0.000000290
     62        1           0.000000606    0.000000777    0.000000397
     63        1          -0.000000812    0.000000850   -0.000001669
     64        1           0.000000832   -0.000000950   -0.000000529
     65        1           0.000001153   -0.000001196   -0.000000806
     66        1           0.000001852   -0.000001064   -0.000000876
     67        1           0.000000877   -0.000001633   -0.000000155
     68        1           0.000000652    0.000000366   -0.000001575
     69        1          -0.000000350   -0.000000505    0.000000224
     70        1          -0.000000229    0.000001260    0.000000661
     71        1          -0.000000282    0.000001517    0.000001050
     72        1           0.000000564    0.000002075   -0.000000207
 -------------------------------------------------------------------
 Cartesian Forces:  Max     0.000022704 RMS     0.000005468
 Leave Link  716 at Mon Jul 28 19:34:43 2025, MaxMem=  1073741824 cpu:               0.2 elap:               0.0
 (Enter /app/gaussian/g16/l103.exe)

 GradGradGradGradGradGradGradGradGradGradGradGradGradGradGradGradGradGrad
 Berny optimization.
 Using GEDIIS/GDIIS optimizer.
 FormGI is forming the generalized inverse of G from B-inverse, IUseBI=4.
 Internal  Forces:  Max     0.000010813 RMS     0.000002064
 Search for a local minimum.
 Step number  12 out of a maximum of  432
 All quantities printed in internal units (Hartrees-Bohrs-Radians)
 RMS Force = .20643D-05 SwitMx=.10000D-02 MixMth= 2
 Mixed Optimization -- En-DIIS/RFO-DIIS
 Swapping is turned off.
 Update second derivatives using D2CorX and points    2    3    4    5    6
                                                      7    8    9   10   11
                                                     12
 DE=  2.37D-08 DEPred=-6.71D-08 R=-3.53D-01
 Trust test=-3.53D-01 RLast= 5.71D-03 DXMaxT set to 4.24D-01
 ITU= -1  0  0  1  1  0  1  1  0  1  1  0
     Eigenvalues ---    0.00153   0.00228   0.00240   0.00242   0.00248
     Eigenvalues ---    0.00287   0.00312   0.00326   0.00344   0.00359
     Eigenvalues ---    0.00370   0.00386   0.00439   0.00509   0.00548
     Eigenvalues ---    0.00622   0.00815   0.00923   0.01079   0.01276
     Eigenvalues ---    0.01771   0.02027   0.02067   0.02143   0.02372
     Eigenvalues ---    0.02476   0.02579   0.02835   0.02932   0.03056
     Eigenvalues ---    0.03070   0.03257   0.03492   0.03514   0.03593
     Eigenvalues ---    0.03654   0.03756   0.03981   0.04051   0.04333
     Eigenvalues ---    0.04405   0.04438   0.04635   0.04688   0.04701
     Eigenvalues ---    0.04740   0.04758   0.04830   0.04845   0.04901
     Eigenvalues ---    0.04918   0.04921   0.04990   0.05096   0.05251
     Eigenvalues ---    0.05330   0.05352   0.05372   0.05407   0.05421
     Eigenvalues ---    0.05453   0.05463   0.05479   0.05504   0.05551
     Eigenvalues ---    0.05583   0.05587   0.05636   0.05743   0.05820
     Eigenvalues ---    0.05921   0.05944   0.06106   0.06437   0.06758
     Eigenvalues ---    0.06962   0.07130   0.07215   0.07685   0.07836
     Eigenvalues ---    0.08040   0.08074   0.08227   0.08269   0.08441
     Eigenvalues ---    0.08549   0.08719   0.09107   0.09125   0.09442
     Eigenvalues ---    0.09870   0.10217   0.10911   0.11128   0.12086
     Eigenvalues ---    0.12211   0.12493   0.12908   0.13021   0.14474
     Eigenvalues ---    0.14765   0.15414   0.15841   0.15932   0.15946
     Eigenvalues ---    0.15992   0.15997   0.15999   0.16000   0.16000
     Eigenvalues ---    0.16000   0.16000   0.16000   0.16001   0.16006
     Eigenvalues ---    0.16036   0.16050   0.16105   0.16177   0.16511
     Eigenvalues ---    0.16795   0.16963   0.17104   0.18461   0.18853
     Eigenvalues ---    0.19168   0.19327   0.20777   0.21041   0.21900
     Eigenvalues ---    0.21974   0.22375   0.22614   0.22870   0.23100
     Eigenvalues ---    0.24829   0.25639   0.25834   0.26021   0.26172
     Eigenvalues ---    0.26513   0.27184   0.27386   0.27797   0.27907
     Eigenvalues ---    0.28046   0.28246   0.28371   0.28567   0.28673
     Eigenvalues ---    0.28702   0.28815   0.28890   0.29034   0.29299
     Eigenvalues ---    0.29438   0.29488   0.29736   0.30294   0.31028
     Eigenvalues ---    0.31162   0.32792   0.33205   0.33274   0.33609
     Eigenvalues ---    0.33662   0.33745   0.33836   0.33897   0.33939
     Eigenvalues ---    0.33956   0.33968   0.34002   0.34021   0.34041
     Eigenvalues ---    0.34064   0.34077   0.34095   0.34104   0.34108
     Eigenvalues ---    0.34130   0.34152   0.34174   0.34182   0.34187
     Eigenvalues ---    0.34201   0.34208   0.34212   0.34218   0.34221
     Eigenvalues ---    0.34243   0.34257   0.34272   0.34333   0.34363
     Eigenvalues ---    0.34389   0.34424   0.34558   0.34762   0.34836
     Eigenvalues ---    0.35174   0.35265   0.35855   0.36159   0.37567
     Eigenvalues ---    0.38300   0.41537   0.52876   0.53320   0.54983
 En-DIIS/RFO-DIIS/Sim-DIIS IScMMF=       -3 using points:    12   11   10    9    8    7    6    5    4    3
 RFO step:  Lambda=-3.48399684D-08.
 NNeg= 0 NGDIIS=10 SimSw=  2.50D-03 Rises=F DC=  2.37D-08 SmlDif=  1.00D-05
 NRisDI= 0 DoIntr=F SqrtH=F CThrHd= 10.0 CDAdj=  3.0
 RMS Error=  0.1479872992D-03 NUsed=10 OKEnD=F EnDIS=F
 InvSVX:  RCond= 1.21D-07 Info=           0 Equed=N FErr=  1.72D-13 BErr=  1.21D-16
 DidBck=F Rises=F RFO-DIIS coefs:    1.01828    0.36280   -0.43170   -0.02257    0.05310
                  RFO-DIIS coefs:    0.01089    0.01795   -0.00409   -0.00070   -0.00396
 Iteration  1 RMS(Cart)=  0.00046066 RMS(Int)=  0.00000015
 Iteration  2 RMS(Cart)=  0.00000020 RMS(Int)=  0.00000006
 ITry= 1 IFail=0 DXMaxC= 3.18D-03 DCOld= 1.00D+10 DXMaxT= 4.24D-01 DXLimC= 3.00D+00 Rises=F
 Variable       Old X    -DE/DX   Delta X   Delta X   Delta X     New X
                                 (Linear)    (Quad)   (Total)
    R1        2.92987   0.00001  -0.00004   0.00005   0.00002   2.92989
    R2        2.06972   0.00000   0.00000   0.00001   0.00001   2.06972
    R3        2.06728  -0.00001  -0.00000  -0.00001  -0.00001   2.06727
    R4        2.07022   0.00000  -0.00001   0.00002   0.00001   2.07023
    R5        2.95317   0.00001   0.00001   0.00003   0.00004   2.95321
    R6        2.91264  -0.00001   0.00002  -0.00003  -0.00001   2.91263
    R7        2.95938  -0.00000  -0.00000  -0.00003  -0.00003   2.95935
    R8        2.84646  -0.00000   0.00000  -0.00000  -0.00000   2.84646
    R9        2.91725  -0.00000  -0.00004   0.00003  -0.00002   2.91724
   R10        2.09498  -0.00000   0.00000  -0.00000  -0.00000   2.09498
   R11        2.90661   0.00000  -0.00001   0.00003   0.00001   2.90662
   R12        2.55683   0.00001  -0.00000   0.00002   0.00001   2.55685
   R13        2.98383  -0.00001   0.00002  -0.00006  -0.00004   2.98379
   R14        2.94993  -0.00001  -0.00000  -0.00001  -0.00002   2.94992
   R15        2.09689   0.00000  -0.00004   0.00004   0.00000   2.09689
   R16        2.94648   0.00000   0.00000   0.00001   0.00001   2.94649
   R17        2.90757   0.00001   0.00002   0.00001   0.00003   2.90761
   R18        2.96307   0.00000  -0.00004   0.00004   0.00000   2.96307
   R19        2.07083   0.00000  -0.00001   0.00001  -0.00000   2.07083
   R20        2.07052   0.00000  -0.00002   0.00002   0.00000   2.07052
   R21        2.06975  -0.00000  -0.00000   0.00000  -0.00000   2.06975
   R22        2.55188   0.00000   0.00001  -0.00001   0.00000   2.55188
   R23        2.84902  -0.00001   0.00002  -0.00004  -0.00002   2.84900
   R24        2.76035  -0.00001  -0.00003   0.00001  -0.00002   2.76033
   R25        2.05724   0.00000  -0.00001   0.00001  -0.00000   2.05724
   R26        2.05364   0.00000  -0.00001   0.00001   0.00000   2.05365
   R27        2.91841   0.00000  -0.00002   0.00004   0.00001   2.91843
   R28        2.06908   0.00000  -0.00004   0.00003  -0.00001   2.06907
   R29        2.07900  -0.00000   0.00001  -0.00001  -0.00000   2.07899
   R30        2.79073   0.00001  -0.00001   0.00001   0.00001   2.79074
   R31        2.91598   0.00000   0.00004  -0.00002   0.00002   2.91600
   R32        2.07642  -0.00000  -0.00002   0.00001  -0.00001   2.07642
   R33        1.84883   0.00000  -0.00001   0.00001   0.00000   1.84883
   R34        2.90741  -0.00001  -0.00000  -0.00002  -0.00002   2.90739
   R35        2.07628  -0.00000  -0.00001   0.00000  -0.00001   2.07627
   R36        2.07709   0.00001  -0.00000   0.00002   0.00001   2.07710
   R37        2.07163   0.00000  -0.00002   0.00002  -0.00000   2.07163
   R38        2.07473   0.00000  -0.00001   0.00001   0.00000   2.07473
   R39        2.92289  -0.00000  -0.00001  -0.00001  -0.00002   2.92288
   R40        2.06748   0.00000   0.00001   0.00000   0.00001   2.06748
   R41        2.07330   0.00000  -0.00003   0.00002  -0.00000   2.07329
   R42        2.08132   0.00000  -0.00002   0.00001  -0.00000   2.08132
   R43        2.07802  -0.00000  -0.00000  -0.00000  -0.00000   2.07802
   R44        2.96032  -0.00000  -0.00004   0.00002  -0.00003   2.96030
   R45        2.07096   0.00000  -0.00002   0.00001  -0.00000   2.07096
   R46        2.07354   0.00000   0.00001  -0.00000   0.00001   2.07355
   R47        2.96267   0.00001   0.00004   0.00001   0.00004   2.96271
   R48        2.06514  -0.00000  -0.00001   0.00001  -0.00000   2.06514
   R49        2.07118  -0.00000   0.00000  -0.00001  -0.00000   2.07118
   R50        2.94460  -0.00000   0.00001  -0.00002  -0.00001   2.94458
   R51        2.08775   0.00000  -0.00004   0.00003  -0.00001   2.08774
   R52        2.94499   0.00000  -0.00001   0.00001   0.00000   2.94499
   R53        2.92683  -0.00000   0.00002  -0.00002   0.00000   2.92683
   R54        2.08579   0.00000   0.00000  -0.00000   0.00000   2.08579
   R55        2.91740   0.00000   0.00000  -0.00000  -0.00000   2.91740
   R56        2.07045   0.00000  -0.00001   0.00001   0.00000   2.07045
   R57        2.08324  -0.00000  -0.00002   0.00001  -0.00000   2.08324
   R58        2.91506  -0.00000   0.00000  -0.00001  -0.00000   2.91505
   R59        2.07787   0.00000   0.00001  -0.00000   0.00000   2.07787
   R60        2.07065   0.00000  -0.00001   0.00001   0.00000   2.07065
   R61        2.92561  -0.00000   0.00000  -0.00000   0.00000   2.92561
   R62        2.08095   0.00000  -0.00001   0.00001   0.00000   2.08095
   R63        2.08342  -0.00000  -0.00001   0.00000  -0.00000   2.08342
   R64        2.91537  -0.00000   0.00000  -0.00001  -0.00001   2.91536
   R65        2.91537   0.00000  -0.00000   0.00000  -0.00000   2.91537
   R66        2.08448  -0.00000  -0.00000   0.00000  -0.00000   2.08447
   R67        2.07649  -0.00000  -0.00001   0.00000  -0.00000   2.07649
   R68        2.07359   0.00000  -0.00001   0.00001  -0.00000   2.07359
   R69        2.07338   0.00000  -0.00001   0.00001   0.00000   2.07338
   R70        2.07696  -0.00000   0.00000  -0.00000  -0.00000   2.07696
   R71        2.07360   0.00000  -0.00001   0.00002   0.00000   2.07360
   R72        2.07072   0.00000  -0.00001   0.00001  -0.00000   2.07072
   R73        2.07366   0.00000  -0.00002   0.00001  -0.00000   2.07366
   R74        2.07368  -0.00000  -0.00001   0.00000  -0.00000   2.07368
   R75        2.07115   0.00000  -0.00000   0.00001   0.00000   2.07115
    A1        1.93685  -0.00000   0.00002  -0.00001   0.00001   1.93686
    A2        1.95259   0.00000  -0.00001   0.00002   0.00001   1.95260
    A3        1.94100   0.00000  -0.00002   0.00003   0.00000   1.94100
    A4        1.87067  -0.00000   0.00000   0.00000   0.00001   1.87067
    A5        1.87774  -0.00000   0.00001  -0.00003  -0.00002   1.87772
    A6        1.88157  -0.00000   0.00000  -0.00001  -0.00001   1.88156
    A7        1.92650  -0.00000  -0.00003   0.00000  -0.00002   1.92648
    A8        1.93393  -0.00000   0.00003  -0.00005  -0.00002   1.93391
    A9        1.98011   0.00000   0.00002  -0.00001   0.00001   1.98012
   A10        1.86721   0.00000  -0.00002   0.00001  -0.00001   1.86720
   A11        1.72941   0.00000   0.00000   0.00004   0.00004   1.72944
   A12        2.01186   0.00000  -0.00002   0.00003   0.00001   2.01187
   A13        1.99747  -0.00000   0.00001  -0.00003  -0.00002   1.99745
   A14        1.81697  -0.00000  -0.00005   0.00002  -0.00003   1.81694
   A15        1.82372  -0.00000   0.00002  -0.00000   0.00001   1.82373
   A16        2.11152   0.00000   0.00000   0.00002   0.00002   2.11154
   A17        1.83245   0.00000   0.00001  -0.00000   0.00001   1.83246
   A18        1.85829  -0.00000   0.00001  -0.00001   0.00001   1.85830
   A19        2.00600   0.00000   0.00005  -0.00001   0.00004   2.00604
   A20        2.15718  -0.00000  -0.00004   0.00001  -0.00003   2.15715
   A21        2.09969  -0.00000   0.00001  -0.00001  -0.00001   2.09969
   A22        1.98019  -0.00000  -0.00000  -0.00001  -0.00001   1.98018
   A23        1.96282  -0.00000   0.00000  -0.00000   0.00000   1.96282
   A24        1.83512  -0.00000  -0.00007   0.00003  -0.00003   1.83508
   A25        1.95738   0.00000   0.00007  -0.00005   0.00002   1.95740
   A26        1.86044   0.00000  -0.00002   0.00003   0.00001   1.86045
   A27        1.85578  -0.00000  -0.00000   0.00000   0.00000   1.85578
   A28        1.95009  -0.00000   0.00003  -0.00005  -0.00002   1.95007
   A29        1.93371   0.00000  -0.00002   0.00003   0.00001   1.93373
   A30        1.92506  -0.00000   0.00003  -0.00001   0.00002   1.92508
   A31        1.85639  -0.00000  -0.00001   0.00001  -0.00000   1.85639
   A32        1.90326   0.00000  -0.00001  -0.00000  -0.00001   1.90325
   A33        1.89322  -0.00000  -0.00002   0.00002  -0.00000   1.89321
   A34        1.91662   0.00000   0.00003  -0.00002   0.00001   1.91663
   A35        1.94803  -0.00000  -0.00004   0.00002  -0.00001   1.94801
   A36        1.93839  -0.00000  -0.00000  -0.00000  -0.00001   1.93839
   A37        1.87373   0.00000  -0.00000   0.00001   0.00000   1.87373
   A38        1.88537  -0.00000   0.00001  -0.00000   0.00000   1.88537
   A39        1.89951   0.00000   0.00001  -0.00001   0.00000   1.89951
   A40        2.10242  -0.00000   0.00001  -0.00002  -0.00001   2.10242
   A41        2.02030  -0.00000  -0.00000  -0.00003  -0.00003   2.02026
   A42        2.15942   0.00001  -0.00001   0.00005   0.00004   2.15946
   A43        2.12694   0.00000  -0.00000   0.00000  -0.00000   2.12694
   A44        2.09518  -0.00000   0.00003  -0.00004  -0.00001   2.09517
   A45        2.05966   0.00000  -0.00002   0.00003   0.00001   2.05967
   A46        2.12105   0.00000  -0.00001   0.00002   0.00001   2.12106
   A47        2.09762  -0.00000   0.00001  -0.00002  -0.00001   2.09761
   A48        2.05846   0.00000  -0.00001   0.00002   0.00001   2.05846
   A49        1.94315   0.00000  -0.00000  -0.00001  -0.00002   1.94313
   A50        1.94262   0.00000   0.00007  -0.00001   0.00006   1.94268
   A51        1.93067   0.00000  -0.00002   0.00000  -0.00001   1.93066
   A52        1.92934  -0.00000  -0.00008   0.00006  -0.00003   1.92931
   A53        1.84877  -0.00000  -0.00004   0.00002  -0.00002   1.84875
   A54        1.86554  -0.00000   0.00006  -0.00005   0.00001   1.86555
   A55        1.83225   0.00000   0.00002   0.00001   0.00003   1.83228
   A56        1.94768   0.00000  -0.00006   0.00005  -0.00002   1.94767
   A57        1.92597  -0.00000   0.00000  -0.00002  -0.00001   1.92596
   A58        1.94855  -0.00000   0.00004  -0.00002   0.00002   1.94856
   A59        1.89064  -0.00000   0.00004  -0.00004   0.00001   1.89065
   A60        1.91662   0.00000  -0.00004   0.00001  -0.00003   1.91659
   A61        1.93936   0.00000  -0.00001   0.00003   0.00002   1.93938
   A62        1.94518  -0.00000   0.00004  -0.00003   0.00001   1.94519
   A63        1.90948  -0.00000  -0.00004   0.00003  -0.00000   1.90948
   A64        1.89710   0.00000   0.00000  -0.00001  -0.00001   1.89709
   A65        1.93478   0.00000   0.00001   0.00001   0.00002   1.93481
   A66        1.91525  -0.00000  -0.00003   0.00001  -0.00002   1.91523
   A67        1.85973  -0.00000   0.00000  -0.00001  -0.00000   1.85973
   A68        1.95063  -0.00000  -0.00002   0.00002  -0.00000   1.95063
   A69        1.91894  -0.00000   0.00001  -0.00001   0.00000   1.91894
   A70        1.91207  -0.00000  -0.00005   0.00004  -0.00001   1.91206
   A71        1.92711   0.00000   0.00004  -0.00003   0.00001   1.92712
   A72        1.89572   0.00000   0.00002   0.00001   0.00003   1.89574
   A73        1.85681  -0.00000   0.00001  -0.00003  -0.00002   1.85679
   A74        2.00263   0.00000  -0.00001  -0.00001  -0.00002   2.00261
   A75        1.90968   0.00000  -0.00008   0.00008  -0.00000   1.90968
   A76        1.90455  -0.00000   0.00002  -0.00001   0.00001   1.90456
   A77        1.88260  -0.00000   0.00002  -0.00002  -0.00001   1.88259
   A78        1.90335  -0.00000   0.00002  -0.00000   0.00001   1.90337
   A79        1.85535  -0.00000   0.00004  -0.00004  -0.00000   1.85535
   A80        1.93674   0.00000  -0.00005   0.00002  -0.00003   1.93671
   A81        1.90118   0.00000   0.00001  -0.00000   0.00000   1.90118
   A82        1.93703  -0.00000   0.00002  -0.00003  -0.00001   1.93702
   A83        1.92174   0.00000   0.00001   0.00000   0.00001   1.92176
   A84        1.90049   0.00000   0.00002   0.00001   0.00002   1.90051
   A85        1.86540   0.00000   0.00000   0.00000   0.00001   1.86540
   A86        1.81781   0.00000   0.00002  -0.00000   0.00002   1.81782
   A87        1.95663   0.00000   0.00005  -0.00001   0.00004   1.95668
   A88        1.92984  -0.00000  -0.00006   0.00001  -0.00005   1.92979
   A89        1.95755   0.00000  -0.00001   0.00001   0.00000   1.95755
   A90        1.93425  -0.00000  -0.00003   0.00003   0.00001   1.93426
   A91        1.86905  -0.00000   0.00002  -0.00004  -0.00002   1.86903
   A92        1.85034   0.00000  -0.00001   0.00002   0.00001   1.85034
   A93        1.92970   0.00000   0.00003   0.00000   0.00003   1.92973
   A94        1.94455   0.00000  -0.00001   0.00000  -0.00000   1.94454
   A95        1.94952  -0.00000   0.00002  -0.00001   0.00001   1.94953
   A96        1.93100  -0.00000  -0.00005   0.00001  -0.00004   1.93095
   A97        1.86032  -0.00000   0.00002  -0.00002   0.00000   1.86032
   A98        1.80798  -0.00000   0.00001   0.00001   0.00002   1.80800
   A99        2.10783  -0.00000   0.00003  -0.00002   0.00001   2.10784
   A100       1.80868   0.00000   0.00002  -0.00000   0.00002   1.80870
   A101       2.06717   0.00000  -0.00003   0.00003  -0.00000   2.06717
   A102       1.84190  -0.00000   0.00003  -0.00006  -0.00003   1.84187
   A103       1.79740  -0.00000  -0.00006   0.00004  -0.00002   1.79739
   A104       2.10508   0.00000   0.00005  -0.00005   0.00001   2.10509
   A105       1.91123  -0.00000  -0.00001   0.00001  -0.00001   1.91122
   A106       1.82648  -0.00000   0.00002  -0.00002   0.00000   1.82648
   A107       1.92811  -0.00000  -0.00003   0.00002  -0.00001   1.92810
   A108       1.81975  -0.00000  -0.00004   0.00003  -0.00000   1.81974
   A109       1.85183   0.00000   0.00001   0.00000   0.00001   1.85184
   A110       2.07927   0.00000   0.00009  -0.00008   0.00001   2.07928
   A111       1.91409  -0.00000  -0.00000  -0.00000  -0.00001   1.91408
   A112       1.84279   0.00000  -0.00004   0.00004   0.00000   1.84280
   A113       1.89708   0.00000  -0.00001   0.00003   0.00001   1.89709
   A114       1.87391  -0.00000  -0.00004   0.00002  -0.00002   1.87389
   A115       1.84160  -0.00000  -0.00001   0.00001  -0.00000   1.84160
   A116       1.95170   0.00000  -0.00001   0.00001   0.00001   1.95171
   A117       1.92329  -0.00000   0.00002  -0.00002  -0.00000   1.92329
   A118       1.91967   0.00000   0.00001  -0.00000   0.00001   1.91968
   A119       1.89842   0.00000   0.00001   0.00001   0.00002   1.89844
   A120       1.90698  -0.00000  -0.00001  -0.00001  -0.00002   1.90697
   A121       1.86142   0.00000  -0.00002   0.00001  -0.00002   1.86141
   A122       2.01032  -0.00000   0.00001  -0.00001   0.00000   2.01032
   A123       1.89361   0.00000   0.00002   0.00000   0.00002   1.89363
   A124       1.90948  -0.00000  -0.00001  -0.00000  -0.00001   1.90947
   A125       1.89238  -0.00000   0.00000  -0.00001  -0.00001   1.89237
   A126       1.89793   0.00000  -0.00001   0.00000  -0.00001   1.89792
   A127       1.85377  -0.00000  -0.00001   0.00001  -0.00000   1.85377
   A128       1.92797   0.00000   0.00003  -0.00001   0.00001   1.92798
   A129       1.96274  -0.00000  -0.00002   0.00002  -0.00001   1.96273
   A130       1.87733  -0.00000  -0.00002   0.00002  -0.00001   1.87733
   A131       1.92650  -0.00000   0.00003  -0.00003   0.00001   1.92650
   A132       1.88196   0.00000   0.00000   0.00001   0.00001   1.88197
   A133       1.88437  -0.00000  -0.00001  -0.00000  -0.00002   1.88435
   A134       1.93134   0.00000   0.00000   0.00000   0.00000   1.93134
   A135       1.94200   0.00000  -0.00000   0.00001   0.00001   1.94201
   A136       1.94054   0.00000   0.00000  -0.00000   0.00000   1.94054
   A137       1.88194  -0.00000  -0.00001   0.00000  -0.00000   1.88194
   A138       1.88091  -0.00000  -0.00001   0.00000  -0.00001   1.88090
   A139       1.88472  -0.00000   0.00001  -0.00001  -0.00000   1.88471
   A140       1.92899  -0.00000   0.00002  -0.00002   0.00000   1.92899
   A141       1.93396   0.00000   0.00000   0.00000   0.00001   1.93396
   A142       1.95609  -0.00000  -0.00001   0.00000  -0.00001   1.95608
   A143       1.88033   0.00000  -0.00001   0.00001  -0.00000   1.88033
   A144       1.88390   0.00000  -0.00000   0.00001   0.00001   1.88390
   A145       1.87783   0.00000   0.00001  -0.00000   0.00000   1.87784
   A146       1.93543  -0.00000   0.00002  -0.00002   0.00000   1.93543
   A147       1.93308   0.00000   0.00002  -0.00002  -0.00000   1.93308
   A148       1.95268   0.00000  -0.00005   0.00003  -0.00002   1.95266
   A149       1.88202  -0.00000   0.00000  -0.00000  -0.00000   1.88202
   A150       1.87762   0.00000   0.00002  -0.00000   0.00001   1.87763
   A151       1.88020   0.00000  -0.00000   0.00001   0.00000   1.88021
    D1       -0.74267   0.00000   0.00014   0.00004   0.00018  -0.74250
    D2        1.32252  -0.00000   0.00012   0.00001   0.00013   1.32265
    D3       -2.66552  -0.00000   0.00014  -0.00000   0.00013  -2.66539
    D4        1.34574   0.00000   0.00015   0.00005   0.00020   1.34593
    D5       -2.87225  -0.00000   0.00012   0.00003   0.00015  -2.87210
    D6       -0.57711  -0.00000   0.00015   0.00001   0.00015  -0.57696
    D7       -2.83230   0.00000   0.00013   0.00007   0.00019  -2.83211
    D8       -0.76711   0.00000   0.00010   0.00004   0.00015  -0.76696
    D9        1.52803   0.00000   0.00013   0.00003   0.00015   1.52818
   D10        1.08414  -0.00000   0.00002  -0.00007  -0.00004   1.08409
   D11       -1.25822  -0.00001   0.00005  -0.00009  -0.00004  -1.25826
   D12        3.07847  -0.00000   0.00005  -0.00008  -0.00004   3.07844
   D13       -1.02145   0.00000   0.00001  -0.00001   0.00001  -1.02145
   D14        2.91937  -0.00000   0.00005  -0.00003   0.00001   2.91939
   D15        0.97288   0.00000   0.00004  -0.00003   0.00002   0.97290
   D16       -3.11688   0.00000   0.00004  -0.00006  -0.00002  -3.11690
   D17        0.82395  -0.00000   0.00007  -0.00008  -0.00001   0.82394
   D18       -1.12254   0.00000   0.00007  -0.00007  -0.00001  -1.12255
   D19       -1.06741   0.00000   0.00013   0.00002   0.00015  -1.06726
   D20        3.09738   0.00000   0.00015   0.00001   0.00015   3.09753
   D21        1.04826   0.00000   0.00013   0.00002   0.00015   1.04841
   D22        1.03344   0.00000   0.00011  -0.00000   0.00010   1.03354
   D23       -1.08495  -0.00000   0.00012  -0.00001   0.00010  -1.08485
   D24       -3.13407  -0.00000   0.00010  -0.00000   0.00010  -3.13397
   D25        2.93716   0.00000   0.00009   0.00006   0.00015   2.93730
   D26        0.81877   0.00000   0.00010   0.00004   0.00015   0.81891
   D27       -1.23036   0.00000   0.00008   0.00006   0.00014  -1.23021
   D28        1.29195   0.00000   0.00005   0.00007   0.00012   1.29207
   D29       -1.07427  -0.00000   0.00005   0.00004   0.00009  -1.07418
   D30       -3.07128  -0.00000   0.00009   0.00000   0.00009  -3.07119
   D31       -0.74990   0.00000   0.00007   0.00005   0.00012  -0.74978
   D32       -3.11612  -0.00000   0.00007   0.00002   0.00009  -3.11603
   D33        1.17006  -0.00000   0.00011  -0.00002   0.00009   1.17015
   D34       -2.73507   0.00000   0.00009   0.00001   0.00010  -2.73497
   D35        1.18189  -0.00000   0.00010  -0.00002   0.00008   1.18197
   D36       -0.81512  -0.00000   0.00014  -0.00006   0.00008  -0.81504
   D37        0.87690  -0.00000  -0.00013   0.00004  -0.00010   0.87680
   D38       -2.47998  -0.00000  -0.00010   0.00001  -0.00009  -2.48007
   D39        3.07281  -0.00000  -0.00020   0.00006  -0.00014   3.07267
   D40       -0.28407  -0.00000  -0.00016   0.00003  -0.00013  -0.28420
   D41       -1.11230  -0.00000  -0.00017   0.00006  -0.00011  -1.11241
   D42        1.81400  -0.00000  -0.00013   0.00003  -0.00010   1.81390
   D43       -0.57447   0.00000  -0.00019   0.00009  -0.00010  -0.57456
   D44       -2.69479   0.00000  -0.00021   0.00008  -0.00013  -2.69492
   D45        1.50411   0.00000  -0.00024   0.00013  -0.00010   1.50401
   D46       -2.85098   0.00000  -0.00016   0.00010  -0.00006  -2.85104
   D47        1.31188   0.00000  -0.00018   0.00009  -0.00009   1.31178
   D48       -0.77240   0.00000  -0.00020   0.00014  -0.00007  -0.77247
   D49        1.34682   0.00000  -0.00018   0.00009  -0.00009   1.34673
   D50       -0.77351  -0.00000  -0.00021   0.00008  -0.00013  -0.77363
   D51       -2.85778   0.00000  -0.00023   0.00013  -0.00010  -2.85789
   D52       -2.95098   0.00000   0.00003   0.00003   0.00006  -2.95092
   D53       -0.70619   0.00000   0.00013  -0.00005   0.00008  -0.70611
   D54        1.30584  -0.00000   0.00009  -0.00003   0.00007   1.30591
   D55        0.39821  -0.00000   0.00000   0.00005   0.00005   0.39826
   D56        2.64299   0.00000   0.00010  -0.00003   0.00008   2.64307
   D57       -1.62816  -0.00000   0.00007  -0.00001   0.00006  -1.62810
   D58       -2.87496  -0.00000   0.00004  -0.00011  -0.00007  -2.87503
   D59        0.14611  -0.00000  -0.00006   0.00004  -0.00002   0.14609
   D60        0.04033  -0.00000   0.00009  -0.00014  -0.00005   0.04028
   D61        3.06140   0.00000  -0.00002   0.00002  -0.00000   3.06140
   D62        1.40602   0.00000  -0.00003   0.00000  -0.00002   1.40600
   D63       -0.66062   0.00000  -0.00002   0.00000  -0.00002  -0.66064
   D64       -2.75714  -0.00000   0.00000  -0.00004  -0.00003  -2.75717
   D65       -0.84156   0.00000  -0.00009   0.00006  -0.00004  -0.84159
   D66       -2.90820   0.00000  -0.00009   0.00006  -0.00003  -2.90823
   D67        1.27847   0.00000  -0.00006   0.00002  -0.00005   1.27842
   D68       -2.86578  -0.00000  -0.00012   0.00006  -0.00006  -2.86583
   D69        1.35077   0.00000  -0.00011   0.00006  -0.00005   1.35071
   D70       -0.74575  -0.00000  -0.00009   0.00002  -0.00007  -0.74582
   D71        0.75110  -0.00000  -0.00001   0.00001   0.00000   0.75111
   D72       -1.36723  -0.00000   0.00004  -0.00002   0.00002  -1.36721
   D73        2.89262  -0.00000   0.00003  -0.00001   0.00002   2.89264
   D74        3.00775  -0.00000   0.00006  -0.00005   0.00001   3.00776
   D75        0.88942  -0.00000   0.00010  -0.00007   0.00003   0.88945
   D76       -1.13392  -0.00000   0.00009  -0.00006   0.00003  -1.13389
   D77       -1.24840   0.00000   0.00007  -0.00003   0.00004  -1.24836
   D78        2.91645   0.00000   0.00012  -0.00006   0.00006   2.91651
   D79        0.89311   0.00000   0.00010  -0.00005   0.00006   0.89317
   D80       -2.96158  -0.00000   0.00003   0.00001   0.00005  -2.96153
   D81        1.24579  -0.00000   0.00004   0.00000   0.00004   1.24583
   D82       -0.87734  -0.00000   0.00006  -0.00000   0.00005  -0.87729
   D83       -0.84938   0.00000   0.00002   0.00003   0.00005  -0.84933
   D84       -2.92520   0.00000   0.00003   0.00002   0.00005  -2.92516
   D85        1.23485   0.00000   0.00004   0.00002   0.00006   1.23491
   D86        1.18902   0.00000  -0.00002   0.00006   0.00004   1.18906
   D87       -0.88680   0.00000  -0.00001   0.00004   0.00004  -0.88676
   D88       -3.00993   0.00000   0.00001   0.00004   0.00005  -3.00988
   D89        0.56389  -0.00000  -0.00004   0.00003  -0.00002   0.56388
   D90       -2.62510  -0.00000   0.00001   0.00001   0.00002  -2.62509
   D91       -1.55877   0.00000  -0.00006   0.00006  -0.00000  -1.55878
   D92        1.53541   0.00000  -0.00001   0.00004   0.00003   1.53545
   D93        2.67931  -0.00000  -0.00004   0.00005   0.00001   2.67932
   D94       -0.50969  -0.00000   0.00001   0.00003   0.00005  -0.50964
   D95        1.55585   0.00000  -0.00006   0.00001  -0.00005   1.55580
   D96       -0.59068   0.00000  -0.00010   0.00004  -0.00006  -0.59074
   D97       -2.62534   0.00000  -0.00009   0.00006  -0.00003  -2.62537
   D98       -2.57972  -0.00000  -0.00001  -0.00006  -0.00007  -2.57979
   D99        1.55693  -0.00000  -0.00005  -0.00003  -0.00007   1.55686
   D100      -0.47773   0.00000  -0.00004  -0.00001  -0.00005  -0.47778
   D101      -0.56489  -0.00000  -0.00003  -0.00004  -0.00008  -0.56496
   D102      -2.71142  -0.00000  -0.00007  -0.00001  -0.00008  -2.71150
   D103       1.53710   0.00000  -0.00006   0.00001  -0.00005   1.53705
   D104      -0.14784   0.00000   0.00013  -0.00010   0.00003  -0.14782
   D105       3.05187   0.00000  -0.00000  -0.00000  -0.00001   3.05186
   D106       3.04509   0.00000   0.00007  -0.00008  -0.00001   3.04508
   D107      -0.03839   0.00000  -0.00006   0.00002  -0.00004  -0.03843
   D108       1.08944  -0.00000   0.00007   0.00000   0.00008   1.08951
   D109      -3.03259  -0.00000   0.00002   0.00006   0.00007  -3.03252
   D110      -0.96129  -0.00000   0.00013  -0.00002   0.00012  -0.96117
   D111      -2.10129  -0.00000   0.00012  -0.00002   0.00011  -2.10118
   D112       0.05987  -0.00000   0.00007   0.00004   0.00011   0.05998
   D113       2.13117  -0.00000   0.00019  -0.00004   0.00015   2.13132
   D114      -0.18977   0.00000  -0.00016   0.00017   0.00001  -0.18976
   D115       3.06973   0.00000  -0.00006   0.00003  -0.00003   3.06970
   D116       2.89484   0.00000  -0.00003   0.00008   0.00005   2.89488
   D117      -0.12884   0.00000   0.00007  -0.00007   0.00000  -0.12884
   D118      -2.59822  -0.00000  -0.00010  -0.00010  -0.00020  -2.59842
   D119      -0.48462  -0.00000  -0.00008  -0.00009  -0.00017  -0.48479
   D120       1.65144  -0.00000  -0.00017  -0.00005  -0.00022   1.65121
   D121       1.51629  -0.00000  -0.00014  -0.00011  -0.00025   1.51605
   D122      -2.65329  -0.00000  -0.00011  -0.00011  -0.00022  -2.65351
   D123      -0.51724  -0.00000  -0.00020  -0.00007  -0.00027  -0.51751
   D124      -0.49849  -0.00000  -0.00015  -0.00009  -0.00024  -0.49873
   D125       1.61511  -0.00000  -0.00012  -0.00008  -0.00021   1.61490
   D126      -2.53202  -0.00000  -0.00021  -0.00004  -0.00026  -2.53228
   D127      -2.98429   0.00000   0.00037   0.00014   0.00051  -2.98378
   D128       1.18586   0.00000   0.00041   0.00009   0.00050   1.18636
   D129      -0.92664   0.00000   0.00041   0.00011   0.00052  -0.92612
   D130      -0.55552  -0.00000   0.00003   0.00009   0.00013  -0.55539
   D131      -2.70145  -0.00000   0.00001   0.00008   0.00009  -2.70135
   D132       1.55743  -0.00000   0.00003   0.00008   0.00011   1.55754
   D133       1.48893   0.00000   0.00004   0.00012   0.00017   1.48910
   D134      -0.65699   0.00000   0.00003   0.00011   0.00013  -0.65686
   D135      -2.68130   0.00000   0.00004   0.00011   0.00015  -2.68116
   D136      -2.69694   0.00000   0.00010   0.00007   0.00017  -2.69676
   D137       1.44032   0.00000   0.00008   0.00006   0.00014   1.44046
   D138      -0.58399   0.00000   0.00009   0.00006   0.00015  -0.58384
   D139       1.13981   0.00000   0.00005  -0.00005  -0.00001   1.13980
   D140      -3.00149   0.00000   0.00007  -0.00008  -0.00000  -3.00150
   D141      -0.97170   0.00000   0.00012  -0.00012  -0.00001  -0.97171
   D142      -3.01198   0.00000   0.00004  -0.00002   0.00001  -3.01197
   D143      -0.87010   0.00000   0.00006  -0.00005   0.00002  -0.87009
   D144       1.15969   0.00000   0.00011  -0.00010   0.00001   1.15970
   D145      -0.96251   0.00000   0.00003  -0.00002   0.00001  -0.96250
   D146       1.17938  -0.00000   0.00006  -0.00005   0.00001   1.17939
   D147      -3.07402  -0.00000   0.00010  -0.00009   0.00001  -3.07401
   D148      -0.95017  -0.00000  -0.00012   0.00001  -0.00011  -0.95027
   D149       1.15610  -0.00000  -0.00013   0.00002  -0.00011   1.15599
   D150      -3.08719   0.00000  -0.00011   0.00003  -0.00008  -3.08727
   D151       1.18290  -0.00000  -0.00021   0.00009  -0.00012   1.18278
   D152      -2.99401   0.00000  -0.00022   0.00010  -0.00013  -2.99414
   D153      -0.95412   0.00000  -0.00021   0.00011  -0.00010  -0.95422
   D154      -3.09233  -0.00000  -0.00015   0.00003  -0.00012  -3.09245
   D155      -0.98606  -0.00000  -0.00016   0.00004  -0.00012  -0.98618
   D156       1.05384   0.00000  -0.00015   0.00005  -0.00010   1.05374
   D157       0.09331   0.00000   0.00023  -0.00005   0.00018   0.09349
   D158       2.20924   0.00000   0.00026  -0.00005   0.00021   2.20946
   D159      -2.00856   0.00000   0.00030  -0.00007   0.00023  -2.00833
   D160       2.21303   0.00000   0.00030  -0.00005   0.00024   2.21327
   D161      -1.95423   0.00000   0.00033  -0.00005   0.00028  -1.95395
   D162       0.11115   0.00000   0.00037  -0.00007   0.00029   0.11144
   D163      -1.98226   0.00000   0.00030  -0.00007   0.00023  -1.98203
   D164       0.13367   0.00000   0.00033  -0.00007   0.00026   0.13393
   D165       2.19905   0.00000   0.00037  -0.00009   0.00028   2.19932
   D166       0.41743  -0.00000  -0.00018   0.00000  -0.00018   0.41725
   D167       2.80580   0.00000  -0.00015  -0.00000  -0.00015   2.80565
   D168      -1.47784  -0.00000  -0.00022   0.00002  -0.00020  -1.47804
   D169      -1.68569  -0.00000  -0.00022  -0.00001  -0.00023  -1.68591
   D170       0.70268   0.00000  -0.00019  -0.00001  -0.00020   0.70249
   D171       2.70223  -0.00000  -0.00026   0.00002  -0.00024   2.70198
   D172       2.52809  -0.00000  -0.00023   0.00002  -0.00021   2.52789
   D173      -1.36672   0.00000  -0.00020   0.00002  -0.00018  -1.36690
   D174       0.63282  -0.00000  -0.00027   0.00004  -0.00022   0.63259
   D175       1.07055   0.00000  -0.00008   0.00005  -0.00002   1.07052
   D176      -2.94639   0.00000  -0.00009   0.00005  -0.00004  -2.94643
   D177      -0.96766   0.00000  -0.00008   0.00005  -0.00002  -0.96768
   D178      -1.18628  -0.00000  -0.00010   0.00004  -0.00006  -1.18634
   D179       1.07997  -0.00000  -0.00011   0.00004  -0.00007   1.07990
   D180       3.05870  -0.00000  -0.00009   0.00003  -0.00006   3.05864
   D181       3.07339   0.00000  -0.00007   0.00007  -0.00001   3.07338
   D182      -0.94355   0.00000  -0.00009   0.00007  -0.00002  -0.94357
   D183       1.03518   0.00000  -0.00007   0.00007  -0.00001   1.03518
   D184       1.18325   0.00000   0.00016   0.00008   0.00024   1.18348
   D185      -1.01725   0.00000   0.00010   0.00011   0.00021  -1.01704
   D186      -2.99370   0.00000   0.00013   0.00008   0.00022  -2.99348
   D187      -1.07558   0.00000   0.00017   0.00008   0.00025  -1.07534
   D188       3.00710  -0.00000   0.00011   0.00012   0.00022   3.00733
   D189       1.03065   0.00000   0.00014   0.00009   0.00023   1.03088
   D190      -3.05831   0.00000   0.00019   0.00005   0.00024  -3.05807
   D191       1.02438  -0.00000   0.00013   0.00009   0.00022   1.02460
   D192      -0.95207   0.00000   0.00016   0.00006   0.00022  -0.95185
   D193       0.94758  -0.00000  -0.00011   0.00006  -0.00005   0.94752
   D194       3.03643  -0.00000  -0.00008   0.00003  -0.00005   3.03638
   D195      -1.14876  -0.00000  -0.00011   0.00005  -0.00006  -1.14882
   D196      -2.97688   0.00000  -0.00008   0.00002  -0.00005  -2.97694
   D197      -0.88803   0.00000  -0.00005  -0.00000  -0.00005  -0.88809
   D198       1.20997   0.00000  -0.00008   0.00002  -0.00006   1.20991
   D199      -1.01466   0.00000  -0.00013   0.00007  -0.00006  -1.01472
   D200       1.07419  -0.00000  -0.00010   0.00005  -0.00006   1.07414
   D201      -3.11099   0.00000  -0.00013   0.00007  -0.00006  -3.11105
   D202       2.93770   0.00000   0.00021   0.00003   0.00023   2.93794
   D203       0.82397  -0.00000   0.00019   0.00002   0.00020   0.82417
   D204      -1.22337  -0.00000   0.00020   0.00002   0.00022  -1.22315
   D205      -1.13693   0.00000   0.00026  -0.00002   0.00024  -1.13669
   D206       3.03252  -0.00000   0.00024  -0.00003   0.00022   3.03274
   D207       0.98518   0.00000   0.00026  -0.00002   0.00023   0.98541
   D208       0.84726   0.00000   0.00023   0.00001   0.00024   0.84750
   D209      -1.26647  -0.00000   0.00021   0.00000   0.00021  -1.26626
   D210       2.96937  -0.00000   0.00022   0.00001   0.00023   2.96960
   D211      -3.09134   0.00000   0.00025   0.00010   0.00035  -3.09099
   D212      -0.96714   0.00000   0.00027   0.00009   0.00036  -0.96678
   D213       1.04813   0.00000   0.00026   0.00011   0.00037   1.04849
   D214      -0.96325   0.00000   0.00027   0.00009   0.00037  -0.96289
   D215       1.16094   0.00000   0.00029   0.00008   0.00038   1.16132
   D216      -3.10697   0.00000   0.00028   0.00010   0.00038  -3.10659
   D217       1.06244  -0.00000   0.00025   0.00010   0.00035   1.06279
   D218      -3.09655  -0.00000   0.00027   0.00009   0.00036  -3.09619
   D219      -1.08128   0.00000   0.00026   0.00010   0.00037  -1.08092
   D220       2.98820   0.00000   0.00025   0.00007   0.00032   2.98853
   D221      -1.13408   0.00000   0.00030   0.00004   0.00034  -1.13374
   D222       0.93841   0.00000   0.00025   0.00006   0.00031   0.93872
   D223       0.86334   0.00000   0.00022   0.00008   0.00030   0.86364
   D224       3.02425   0.00000   0.00026   0.00005   0.00031   3.02456
   D225      -1.18645  -0.00000   0.00022   0.00007   0.00028  -1.18616
   D226      -1.14511   0.00000   0.00024   0.00007   0.00031  -1.14481
   D227       1.01579   0.00000   0.00029   0.00004   0.00032   1.01611
   D228       3.08828  -0.00000   0.00024   0.00006   0.00029   3.08858
   D229       1.08915  -0.00000   0.00015  -0.00001   0.00014   1.08929
   D230      -1.00277  -0.00000   0.00016  -0.00002   0.00014  -1.00263
   D231      -3.10438  -0.00000   0.00014  -0.00001   0.00014  -3.10424
   D232      -1.09251   0.00000   0.00014  -0.00000   0.00014  -1.09238
   D233       3.09876   0.00000   0.00014  -0.00001   0.00013   3.09889
   D234       0.99715   0.00000   0.00013  -0.00000   0.00013   0.99728
   D235       3.13609   0.00000   0.00014   0.00001   0.00015   3.13623
   D236       1.04417   0.00000   0.00014  -0.00000   0.00014   1.04431
   D237      -1.05744   0.00000   0.00013   0.00001   0.00014  -1.05730
   D238      -1.04500  -0.00000   0.00008  -0.00003   0.00005  -1.04495
   D239      -3.12812  -0.00000   0.00008  -0.00003   0.00005  -3.12807
   D240       1.05718  -0.00000   0.00007  -0.00003   0.00005   1.05722
   D241       1.11672   0.00000   0.00012  -0.00005   0.00007   1.11679
   D242      -0.96640   0.00000   0.00012  -0.00005   0.00007  -0.96633
   D243      -3.06429   0.00000   0.00012  -0.00005   0.00007  -3.06422
   D244      -3.11336   0.00000   0.00013  -0.00006   0.00007  -3.11329
   D245       1.08670   0.00000   0.00013  -0.00006   0.00007   1.08677
   D246      -1.01119   0.00000   0.00013  -0.00006   0.00007  -1.01112
         Item               Value     Threshold  Converged?
 Maximum Force            0.000011     0.000450     YES
 RMS     Force            0.000002     0.000300     YES
 Maximum Displacement     0.003175     0.001800     NO 
 RMS     Displacement     0.000461     0.001200     YES
 Predicted change in Energy=-1.635524D-08
 GradGradGradGradGradGradGradGradGradGradGradGradGradGradGradGradGradGrad

 Leave Link  103 at Mon Jul 28 19:34:43 2025, MaxMem=  1073741824 cpu:               1.1 elap:               0.2
 (Enter /app/gaussian/g16/l202.exe)
 Stoichiometry    C27H44O
 Framework group  C1[X(C27H44O)]
 Deg. of freedom   210
 Full point group                 C1      NOp   1
 RotChk:  IX=0 Diff= 1.22D-04
 Largest Abelian subgroup         C1      NOp   1
 Largest concise Abelian subgroup C1      NOp   1
                         Standard orientation:                         
 ---------------------------------------------------------------------
 Center     Atomic      Atomic             Coordinates (Angstroms)
 Number     Number       Type             X           Y           Z
 ---------------------------------------------------------------------
      1          6           0       -1.085021   -0.475773   -0.658593
      2          6           0       -0.646146    0.891896   -0.074896
      3          6           0        0.247067    0.682271    1.190206
      4          6           0        1.534433   -0.054891    0.929132
      5          6           0        2.369146    0.492194   -0.241235
      6          6           0        3.560447   -0.455473   -0.660549
      7          6           0        3.074835   -1.625652   -1.569401
      8          6           0        4.202792   -1.105755    0.577165
      9          6           0        3.454560   -1.399029    1.662392
     10          6           0        2.068139   -0.956005    1.785769
     11          6           0        5.668825   -1.436261    0.456986
     12          6           0        6.516226   -0.162821    0.244098
     13          8           0        7.662974   -0.600225   -0.577224
     14          6           0        5.705744    0.948191   -0.455806
     15          6           0        4.662382    0.360137   -1.421541
     16          6           0        1.487136    0.904049   -1.461580
     17          6           0        0.198382    1.677735   -1.097066
     18          6           0       -0.741239    0.196904    2.272236
     19          6           0       -2.079596    0.934214    1.927036
     20          6           0       -1.819629    1.695040    0.581096
     21          6           0       -3.047570    2.146544   -0.265259
     22          6           0       -3.961550    1.093884   -0.961839
     23          6           0       -4.832908    0.162272   -0.092232
     24          6           0       -5.872617   -0.603404   -0.936209
     25          6           0       -6.836219   -1.509241   -0.131385
     26          6           0       -7.958610   -2.047103   -1.042978
     27          6           0       -6.104875   -2.675298    0.565402
     28          6           0       -3.900340    3.147038    0.553648
     29          1           0       -0.251808   -1.186634   -0.660773
     30          1           0       -1.893374   -0.927145   -0.075873
     31          1           0       -1.434340   -0.372083   -1.691738
     32          1           0        0.556914    1.705447    1.483687
     33          1           0        2.827712    1.427170    0.141930
     34          1           0        3.878940   -2.360220   -1.690550
     35          1           0        2.801057   -1.272720   -2.569891
     36          1           0        2.213099   -2.136443   -1.126562
     37          1           0        3.896809   -1.934249    2.500905
     38          1           0        1.503771   -1.285092    2.654217
     39          1           0        6.024154   -1.992600    1.330512
     40          1           0        5.851971   -2.071269   -0.422541
     41          1           0        6.900323    0.205675    1.205360
     42          1           0        8.335507    0.106740   -0.648541
     43          1           0        6.392625    1.622646   -0.985412
     44          1           0        5.202050    1.553268    0.311208
     45          1           0        4.196411    1.157158   -2.012654
     46          1           0        5.176718   -0.295405   -2.136460
     47          1           0        1.194927    0.008436   -2.017880
     48          1           0        2.087320    1.512038   -2.149941
     49          1           0        0.454500    2.659781   -0.669225
     50          1           0       -0.373880    1.869361   -2.016304
     51          1           0       -0.390951    0.428433    3.284512
     52          1           0       -0.869838   -0.891388    2.216603
     53          1           0       -2.899671    0.217861    1.834369
     54          1           0       -2.365370    1.636314    2.718650
     55          1           0       -1.350620    2.653098    0.868670
     56          1           0       -2.614155    2.724877   -1.099499
     57          1           0       -3.363153    0.479623   -1.643767
     58          1           0       -4.642085    1.673317   -1.607148
     59          1           0       -5.360895    0.744682    0.676578
     60          1           0       -4.198488   -0.556238    0.438716
     61          1           0       -6.472133    0.128271   -1.499997
     62          1           0       -5.352166   -1.219481   -1.687928
     63          1           0       -7.304536   -0.886343    0.649263
     64          1           0       -7.541011   -2.672431   -1.844229
     65          1           0       -8.516845   -1.227549   -1.512835
     66          1           0       -8.670172   -2.660367   -0.476051
     67          1           0       -5.596954   -3.309030   -0.175120
     68          1           0       -6.813730   -3.306776    1.115706
     69          1           0       -5.352783   -2.321680    1.279578
     70          1           0       -3.287082    3.984857    0.908773
     71          1           0       -4.710941    3.560283   -0.059802
     72          1           0       -4.354384    2.673628    1.431686
 ---------------------------------------------------------------------
 Rotational constants (GHZ):           0.4106592           0.0649259           0.0627662
 Leave Link  202 at Mon Jul 28 19:34:43 2025, MaxMem=  1073741824 cpu:               0.1 elap:               0.0
 (Enter /app/gaussian/g16/l301.exe)
 Standard basis: 6-31+G (6D, 7F)
 Ernie: Thresh=  0.10000D-02 Tol=  0.10000D-05 Strict=F.
 There are   452 symmetry adapted cartesian basis functions of A   symmetry.
 There are   452 symmetry adapted basis functions of A   symmetry.
   452 basis functions,   904 primitive gaussians,   452 cartesian basis functions
   107 alpha electrons      107 beta electrons
       nuclear repulsion energy      2772.4667135937 Hartrees.
 IExCor=  402 DFT=T Ex+Corr=B3LYP ExCW=0 ScaHFX=  0.200000
 ScaDFX=  0.800000  0.720000  1.000000  0.810000 ScalE2=  1.000000  1.000000
 IRadAn=      5 IRanWt=     -1 IRanGd=            0 ICorTp=0 IEmpDi=  4
 NAtoms=   72 NActive=   72 NUniq=   72 SFac= 1.00D+00 NAtFMM=   60 NAOKFM=T Big=T
 Integral buffers will be    131072 words long.
 Raffenetti 2 integral format.
 Two-electron integral symmetry is turned on.
 Leave Link  301 at Mon Jul 28 19:34:43 2025, MaxMem=  1073741824 cpu:               0.4 elap:               0.1
 (Enter /app/gaussian/g16/l302.exe)
 NPDir=0 NMtPBC=     1 NCelOv=     1 NCel=       1 NClECP=     1 NCelD=      1
         NCelK=      1 NCelE2=     1 NClLst=     1 CellRange=     0.0.
 One-electron integrals computed using PRISM.
 One-electron integral symmetry used in STVInt
 NBasis=   452 RedAO= T EigKep=  1.31D-06  NBF=   452
 NBsUse=   449 1.00D-06 EigRej=  7.64D-07 NBFU=   449
 Precomputing XC quadrature grid using
 IXCGrd= 4 IRadAn=           5 IRanWt=          -1 IRanGd=           0 AccXCQ= 0.00D+00.
 Generated NRdTot=       0 NPtTot=           0 NUsed=           0 NTot=          32
 NSgBfM=   438   438   438   438   438 MxSgAt=    72 MxSgA2=    72.
 Leave Link  302 at Mon Jul 28 19:34:45 2025, MaxMem=  1073741824 cpu:              10.4 elap:               1.3
 (Enter /app/gaussian/g16/l303.exe)
 DipDrv:  MaxL=1.
 Leave Link  303 at Mon Jul 28 19:34:45 2025, MaxMem=  1073741824 cpu:               0.4 elap:               0.1
 (Enter /app/gaussian/g16/l401.exe)
 Initial guess from the checkpoint file:  "/work/scr/Gau-256556.chk"
 B after Tr=    -0.000000   -0.000000    0.000000
         Rot=    1.000000    0.000035    0.000003    0.000002 Ang=   0.00 deg.
 Guess basis will be translated and rotated to current coordinates.
 JPrj=2 DoOrth=T DoCkMO=T.
 Leave Link  401 at Mon Jul 28 19:34:45 2025, MaxMem=  1073741824 cpu:               3.4 elap:               0.4
 (Enter /app/gaussian/g16/l502.exe)
 Integral symmetry usage will be decided dynamically.
 Closed shell SCF:
 Using DIIS extrapolation, IDIIS=  1040.
 NGot=  1073741824 LenX=  1073322182 LenY=  1073117426
 Requested convergence on RMS density matrix=1.00D-08 within 128 cycles.
 Requested convergence on MAX density matrix=1.00D-06.
 Requested convergence on             energy=1.00D-06.
 No special actions if energy rises.
 Fock matrices will be formed incrementally for  20 cycles.

 Cycle   1  Pass 1  IDiag  1:
 FoFJK:  IHMeth= 1 ICntrl=       0 DoSepK=F KAlg= 0 I1Cent=           0 FoldK=F
 IRaf= 990000000 NMat=       1 IRICut=       1 DoRegI=T DoRafI=F ISym2E= 0 IDoP0=0 IntGTp=1.
 FoFCou: FMM=T IPFlag=           0 FMFlag=      100000 FMFlg1=        2001
         NFxFlg=           0 DoJE=F BraDBF=F KetDBF=F FulRan=T
         wScrn=  0.000000 ICntrl=         0 IOpCl=  0 I1Cent=           0 NGrid=           0
         NMat0=    1 NMatS0=      1 NMatT0=    0 NMatD0=    1 NMtDS0=    0 NMtDT0=    0
 Symmetry not used in FoFCou.
 FMM levels:  10  Number of levels for PrismC:   9
 E= -1130.32504759274    
 DIIS: error= 6.99D-05 at cycle   1 NSaved=   1.
 NSaved= 1 IEnMin= 1 EnMin= -1130.32504759274     IErMin= 1 ErrMin= 6.99D-05
 ErrMax= 6.99D-05  0.00D+00 EMaxC= 1.00D-01 BMatC= 8.73D-07 BMatP= 8.73D-07
 IDIUse=1 WtCom= 1.00D+00 WtEn= 0.00D+00
 Coeff-Com:  0.100D+01
 Coeff:      0.100D+01
 Gap=     0.456 Goal=   None    Shift=    0.000
 RMSDP=3.36D-05 MaxDP=3.50D-03              OVMax= 2.49D-04

 Cycle   2  Pass 1  IDiag  1:
 RMSU=  3.19D-05    CP:  1.00D+00
 E= -1130.32504877557     Delta-E=       -0.000001182827 Rises=F Damp=F
 DIIS: error= 4.06D-06 at cycle   2 NSaved=   2.
 NSaved= 2 IEnMin= 2 EnMin= -1130.32504877557     IErMin= 2 ErrMin= 4.06D-06
 ErrMax= 4.06D-06  0.00D+00 EMaxC= 1.00D-01 BMatC= 5.79D-09 BMatP= 8.73D-07
 IDIUse=1 WtCom= 1.00D+00 WtEn= 0.00D+00
 Coeff-Com: -0.332D-01 0.103D+01
 Coeff:     -0.332D-01 0.103D+01
 Gap=     0.172 Goal=   None    Shift=    0.000
 RMSDP=3.95D-06 MaxDP=4.37D-04 DE=-1.18D-06 OVMax= 2.97D-05

 Cycle   3  Pass 1  IDiag  1:
 RMSU=  3.24D-06    CP:  1.00D+00  1.03D+00
 E= -1130.32504878219     Delta-E=       -0.000000006623 Rises=F Damp=F
 DIIS: error= 3.34D-06 at cycle   3 NSaved=   3.
 NSaved= 3 IEnMin= 3 EnMin= -1130.32504878219     IErMin= 3 ErrMin= 3.34D-06
 ErrMax= 3.34D-06  0.00D+00 EMaxC= 1.00D-01 BMatC= 4.41D-09 BMatP= 5.79D-09
 IDIUse=1 WtCom= 1.00D+00 WtEn= 0.00D+00
 Coeff-Com: -0.207D-01 0.504D+00 0.517D+00
 Coeff:     -0.207D-01 0.504D+00 0.517D+00
 Gap=     0.172 Goal=   None    Shift=    0.000
 RMSDP=1.81D-06 MaxDP=1.33D-04 DE=-6.62D-09 OVMax= 1.26D-05

 Cycle   4  Pass 1  IDiag  1:
 RMSU=  1.30D-06    CP:  1.00D+00  1.05D+00  6.89D-01
 E= -1130.32504878657     Delta-E=       -0.000000004371 Rises=F Damp=F
 DIIS: error= 5.38D-07 at cycle   4 NSaved=   4.
 NSaved= 4 IEnMin= 4 EnMin= -1130.32504878657     IErMin= 4 ErrMin= 5.38D-07
 ErrMax= 5.38D-07  0.00D+00 EMaxC= 1.00D-01 BMatC= 2.15D-10 BMatP= 4.41D-09
 IDIUse=1 WtCom= 1.00D+00 WtEn= 0.00D+00
 Coeff-Com: -0.317D-02 0.489D-01 0.187D+00 0.768D+00
 Coeff:     -0.317D-02 0.489D-01 0.187D+00 0.768D+00
 Gap=     0.172 Goal=   None    Shift=    0.000
 RMSDP=8.60D-07 MaxDP=7.13D-05 DE=-4.37D-09 OVMax= 1.07D-05

 Cycle   5  Pass 1  IDiag  1:
 RMSU=  5.77D-07    CP:  1.00D+00  1.04D+00  7.63D-01  6.34D-01
 E= -1130.32504878669     Delta-E=       -0.000000000127 Rises=F Damp=F
 DIIS: error= 4.44D-07 at cycle   5 NSaved=   5.
 NSaved= 5 IEnMin= 5 EnMin= -1130.32504878669     IErMin= 5 ErrMin= 4.44D-07
 ErrMax= 4.44D-07  0.00D+00 EMaxC= 1.00D-01 BMatC= 1.09D-10 BMatP= 2.15D-10
 IDIUse=1 WtCom= 1.00D+00 WtEn= 0.00D+00
 Coeff-Com: -0.714D-03-0.173D-02 0.893D-01 0.514D+00 0.400D+00
 Coeff:     -0.714D-03-0.173D-02 0.893D-01 0.514D+00 0.400D+00
 Gap=     0.172 Goal=   None    Shift=    0.000
 RMSDP=3.58D-07 MaxDP=2.39D-05 DE=-1.27D-10 OVMax= 6.48D-06

 Cycle   6  Pass 1  IDiag  1:
 RMSU=  1.47D-07    CP:  1.00D+00  1.05D+00  7.42D-01  7.42D-01  5.29D-01
 E= -1130.32504878682     Delta-E=       -0.000000000122 Rises=F Damp=F
 DIIS: error= 6.20D-08 at cycle   6 NSaved=   6.
 NSaved= 6 IEnMin= 6 EnMin= -1130.32504878682     IErMin= 6 ErrMin= 6.20D-08
 ErrMax= 6.20D-08  0.00D+00 EMaxC= 1.00D-01 BMatC= 2.46D-12 BMatP= 1.09D-10
 IDIUse=1 WtCom= 1.00D+00 WtEn= 0.00D+00
 Coeff-Com:  0.201D-04-0.631D-02 0.195D-01 0.146D+00 0.178D+00 0.663D+00
 Coeff:      0.201D-04-0.631D-02 0.195D-01 0.146D+00 0.178D+00 0.663D+00
 Gap=     0.172 Goal=   None    Shift=    0.000
 RMSDP=1.15D-07 MaxDP=1.22D-05 DE=-1.22D-10 OVMax= 9.69D-07

 Cycle   7  Pass 1  IDiag  1:
 RMSU=  5.16D-08    CP:  1.00D+00  1.05D+00  7.42D-01  7.70D-01  5.29D-01
                    CP:  5.34D-01
 E= -1130.32504878687     Delta-E=       -0.000000000054 Rises=F Damp=F
 DIIS: error= 2.04D-08 at cycle   7 NSaved=   7.
 NSaved= 7 IEnMin= 7 EnMin= -1130.32504878687     IErMin= 7 ErrMin= 2.04D-08
 ErrMax= 2.04D-08  0.00D+00 EMaxC= 1.00D-01 BMatC= 3.99D-13 BMatP= 2.46D-12
 IDIUse=1 WtCom= 1.00D+00 WtEn= 0.00D+00
 Coeff-Com:  0.540D-04-0.353D-02 0.570D-02 0.518D-01 0.779D-01 0.385D+00
 Coeff-Com:  0.483D+00
 Coeff:      0.540D-04-0.353D-02 0.570D-02 0.518D-01 0.779D-01 0.385D+00
 Coeff:      0.483D+00
 Gap=     0.172 Goal=   None    Shift=    0.000
 RMSDP=4.07D-08 MaxDP=4.19D-06 DE=-5.37D-11 OVMax= 2.07D-07

 Cycle   8  Pass 1  IDiag  1:
 RMSU=  1.36D-08    CP:  1.00D+00  1.05D+00  7.45D-01  7.59D-01  5.29D-01
                    CP:  6.27D-01  5.87D-01
 E= -1130.32504878710     Delta-E=       -0.000000000235 Rises=F Damp=F
 DIIS: error= 4.51D-09 at cycle   8 NSaved=   8.
 NSaved= 8 IEnMin= 8 EnMin= -1130.32504878710     IErMin= 8 ErrMin= 4.51D-09
 ErrMax= 4.51D-09  0.00D+00 EMaxC= 1.00D-01 BMatC= 1.21D-14 BMatP= 3.99D-13
 IDIUse=1 WtCom= 1.00D+00 WtEn= 0.00D+00
 Coeff-Com:  0.206D-04-0.105D-02 0.109D-02 0.117D-01 0.206D-01 0.117D+00
 Coeff-Com:  0.210D+00 0.640D+00
 Coeff:      0.206D-04-0.105D-02 0.109D-02 0.117D-01 0.206D-01 0.117D+00
 Coeff:      0.210D+00 0.640D+00
 Gap=     0.172 Goal=   None    Shift=    0.000
 RMSDP=7.27D-09 MaxDP=4.08D-07 DE=-2.35D-10 OVMax= 3.63D-08

 SCF Done:  E(RB3LYP) =  -1130.32504879     A.U. after    8 cycles
            NFock=  8  Conv=0.73D-08     -V/T= 2.0059
 KE= 1.123703194330D+03 PE=-8.164354236827D+03 EE= 3.137859280116D+03
 Leave Link  502 at Mon Jul 28 19:37:15 2025, MaxMem=  1073741824 cpu:            1197.6 elap:             150.2
 (Enter /app/gaussian/g16/l701.exe)
 ... and contract with generalized density number  0.
 Compute integral first derivatives.
 Leave Link  701 at Mon Jul 28 19:37:16 2025, MaxMem=  1073741824 cpu:               1.8 elap:               0.2
 (Enter /app/gaussian/g16/l702.exe)
 L702 exits ... SP integral derivatives will be done elsewhere.
 Leave Link  702 at Mon Jul 28 19:37:16 2025, MaxMem=  1073741824 cpu:               0.1 elap:               0.0
 (Enter /app/gaussian/g16/l703.exe)
 Integral derivatives from FoFJK, PRISM(SPDF).
 Compute integral first derivatives, UseDBF=F ICtDFT=           0.
 Calling FoFJK, ICntrl=      2127 FMM=T ISym2X=0 I1Cent= 0 IOpClX= 0 NMat=1 NMatS=1 NMatT=0.
 FoFJK:  IHMeth= 1 ICntrl=    2127 DoSepK=F KAlg= 0 I1Cent=           0 FoldK=F
 IRaf=         0 NMat=       1 IRICut=       1 DoRegI=T DoRafI=F ISym2E= 0 IDoP0=0 IntGTp=1.
 FoFCou: FMM=T IPFlag=           0 FMFlag=      100000 FMFlg1=        2001
         NFxFlg=           0 DoJE=F BraDBF=F KetDBF=F FulRan=T
         wScrn=  0.000000 ICntrl=      2127 IOpCl=  0 I1Cent=           0 NGrid=           0
         NMat0=    1 NMatS0=      1 NMatT0=    0 NMatD0=    1 NMtDS0=    0 NMtDT0=    0
 Symmetry not used in FoFCou.
 FMM levels:  10  Number of levels for PrismC:   9
 Leave Link  703 at Mon Jul 28 19:38:05 2025, MaxMem=  1073741824 cpu:             395.1 elap:              49.5
 (Enter /app/gaussian/g16/l716.exe)
 Dipole        =-1.92946309D-01 9.10002503D-01 1.45664796D-01
 ***** Axes restored to original set *****
 -------------------------------------------------------------------
 Center     Atomic                   Forces (Hartrees/Bohr)
 Number     Number              X              Y              Z
 -------------------------------------------------------------------
      1        6           0.000002092    0.000005246   -0.000003829
      2        6           0.000003069   -0.000006010    0.000016256
      3        6          -0.000005392    0.000004565   -0.000000688
      4        6           0.000007027   -0.000000463   -0.000000205
      5        6          -0.000005802   -0.000006321   -0.000008097
      6        6           0.000008074   -0.000001586    0.000007319
      7        6           0.000000032    0.000000013   -0.000001273
      8        6          -0.000012170    0.000010263   -0.000000756
      9        6           0.000008409   -0.000004772    0.000000983
     10        6          -0.000007764    0.000000440   -0.000002263
     11        6           0.000005442   -0.000008929    0.000001072
     12        6           0.000003492   -0.000002519    0.000005457
     13        8           0.000000644   -0.000001797   -0.000002758
     14        6          -0.000000534   -0.000000558   -0.000005659
     15        6          -0.000004426    0.000004731    0.000003021
     16        6           0.000000118    0.000006876    0.000001889
     17        6          -0.000000723    0.000003240   -0.000005675
     18        6           0.000006233   -0.000003231   -0.000001968
     19        6          -0.000005122    0.000004602    0.000001610
     20        6           0.000001594   -0.000003833   -0.000011755
     21        6           0.000001014    0.000004789    0.000007118
     22        6          -0.000000313   -0.000002008   -0.000004666
     23        6           0.000000998   -0.000000463    0.000001495
     24        6          -0.000001137    0.000001293    0.000000205
     25        6           0.000000326   -0.000002457    0.000000902
     26        6          -0.000004490   -0.000000065    0.000000964
     27        6          -0.000001378   -0.000000671   -0.000002460
     28        6          -0.000000901    0.000001014   -0.000003588
     29        1          -0.000001212   -0.000001189   -0.000000515
     30        1          -0.000000140   -0.000001203   -0.000000606
     31        1          -0.000001108   -0.000002092   -0.000001474
     32        1           0.000000751    0.000000520   -0.000000313
     33        1           0.000000628   -0.000000492    0.000004672
     34        1          -0.000000329   -0.000001477   -0.000000389
     35        1           0.000000877   -0.000002725    0.000000464
     36        1          -0.000000356   -0.000001089   -0.000000476
     37        1          -0.000002358    0.000000475   -0.000002518
     38        1           0.000001534    0.000000049   -0.000000663
     39        1          -0.000003022    0.000001599   -0.000002913
     40        1          -0.000000655    0.000000703   -0.000001494
     41        1           0.000000406    0.000003018   -0.000000467
     42        1          -0.000000126    0.000001180    0.000000858
     43        1           0.000000975    0.000000873    0.000000638
     44        1           0.000000671    0.000000510    0.000002737
     45        1           0.000001434   -0.000002490    0.000000904
     46        1           0.000000058   -0.000002616    0.000000164
     47        1          -0.000000063   -0.000003469    0.000000942
     48        1          -0.000001250   -0.000002057    0.000000612
     49        1          -0.000000250    0.000000433    0.000002831
     50        1           0.000001038    0.000000883    0.000001596
     51        1          -0.000000458    0.000002890   -0.000000758
     52        1          -0.000000903    0.000001967   -0.000000834
     53        1           0.000000214    0.000001754   -0.000000662
     54        1           0.000000650    0.000001230   -0.000001414
     55        1          -0.000001753    0.000003387    0.000003656
     56        1          -0.000000206    0.000001890    0.000002215
     57        1           0.000001581   -0.000001337    0.000002403
     58        1           0.000001034   -0.000000481    0.000000589
     59        1          -0.000000681    0.000000216   -0.000001111
     60        1          -0.000000216    0.000000016   -0.000001743
     61        1           0.000001194   -0.000000746    0.000000379
     62        1           0.000000012   -0.000000139    0.000000049
     63        1           0.000000080   -0.000000044   -0.000000756
     64        1           0.000000006   -0.000001247   -0.000000214
     65        1           0.000001400   -0.000001505    0.000000040
     66        1           0.000001435   -0.000000626   -0.000000549
     67        1           0.000000161   -0.000001590   -0.000000561
     68        1           0.000000719   -0.000000092   -0.000001196
     69        1          -0.000000012    0.000000153   -0.000000742
     70        1          -0.000000616    0.000001409    0.000001562
     71        1           0.000000912    0.000001063    0.000000945
     72        1          -0.000000468    0.000001097    0.000001459
 -------------------------------------------------------------------
 Cartesian Forces:  Max     0.000016256 RMS     0.000003160
 Leave Link  716 at Mon Jul 28 19:38:05 2025, MaxMem=  1073741824 cpu:               0.2 elap:               0.0
 (Enter /app/gaussian/g16/l103.exe)

 GradGradGradGradGradGradGradGradGradGradGradGradGradGradGradGradGradGrad
 Berny optimization.
 Using GEDIIS/GDIIS optimizer.
 FormGI is forming the generalized inverse of G from B-inverse, IUseBI=4.
 Internal  Forces:  Max     0.000006703 RMS     0.000001162
 Search for a local minimum.
 Step number  13 out of a maximum of  432
 All quantities printed in internal units (Hartrees-Bohrs-Radians)
 RMS Force = .11618D-05 SwitMx=.10000D-02 MixMth= 2
 Mixed Optimization -- En-DIIS/RFO-DIIS
 Swapping is turned off.
 Update second derivatives using D2CorX and points    2    3    4    5    6
                                                      7    8    9   10   11
                                                     12   13
 DE=  8.07D-09 DEPred=-1.64D-08 R=-4.93D-01
 Trust test=-4.93D-01 RLast= 2.57D-03 DXMaxT set to 2.12D-01
 ITU= -1 -1  0  0  1  1  0  1  1  0  1  1  0
     Eigenvalues ---    0.00139   0.00227   0.00241   0.00244   0.00259
     Eigenvalues ---    0.00301   0.00311   0.00329   0.00344   0.00357
     Eigenvalues ---    0.00363   0.00394   0.00438   0.00523   0.00547
     Eigenvalues ---    0.00623   0.00853   0.00908   0.01085   0.01272
     Eigenvalues ---    0.01744   0.02028   0.02069   0.02146   0.02372
     Eigenvalues ---    0.02477   0.02596   0.02868   0.02929   0.03049
     Eigenvalues ---    0.03079   0.03276   0.03494   0.03515   0.03587
     Eigenvalues ---    0.03683   0.03757   0.03963   0.04054   0.04347
     Eigenvalues ---    0.04408   0.04443   0.04604   0.04683   0.04718
     Eigenvalues ---    0.04744   0.04761   0.04826   0.04846   0.04909
     Eigenvalues ---    0.04917   0.04932   0.04993   0.05116   0.05239
     Eigenvalues ---    0.05322   0.05355   0.05381   0.05412   0.05423
     Eigenvalues ---    0.05457   0.05465   0.05470   0.05480   0.05550
     Eigenvalues ---    0.05584   0.05587   0.05649   0.05785   0.05837
     Eigenvalues ---    0.05922   0.05949   0.06109   0.06359   0.06772
     Eigenvalues ---    0.06955   0.07119   0.07235   0.07708   0.07794
     Eigenvalues ---    0.08029   0.08074   0.08198   0.08250   0.08444
     Eigenvalues ---    0.08564   0.08708   0.09115   0.09137   0.09444
     Eigenvalues ---    0.09810   0.10222   0.10894   0.11127   0.12081
     Eigenvalues ---    0.12198   0.12482   0.12950   0.13026   0.14364
     Eigenvalues ---    0.14774   0.15396   0.15826   0.15929   0.15956
     Eigenvalues ---    0.15981   0.15993   0.15998   0.16000   0.16000
     Eigenvalues ---    0.16000   0.16000   0.16000   0.16002   0.16027
     Eigenvalues ---    0.16038   0.16053   0.16127   0.16153   0.16550
     Eigenvalues ---    0.16826   0.16983   0.17112   0.18492   0.19028
     Eigenvalues ---    0.19164   0.19331   0.20610   0.21030   0.21883
     Eigenvalues ---    0.21998   0.22381   0.22608   0.22914   0.23045
     Eigenvalues ---    0.24812   0.25630   0.25684   0.25942   0.26278
     Eigenvalues ---    0.26587   0.27133   0.27391   0.27781   0.27913
     Eigenvalues ---    0.28024   0.28075   0.28361   0.28499   0.28680
     Eigenvalues ---    0.28715   0.28802   0.28999   0.29054   0.29326
     Eigenvalues ---    0.29476   0.29503   0.29655   0.29940   0.31044
     Eigenvalues ---    0.31108   0.32818   0.33237   0.33303   0.33605
     Eigenvalues ---    0.33662   0.33749   0.33834   0.33897   0.33938
     Eigenvalues ---    0.33956   0.33967   0.33999   0.34022   0.34054
     Eigenvalues ---    0.34067   0.34072   0.34092   0.34102   0.34106
     Eigenvalues ---    0.34141   0.34154   0.34176   0.34180   0.34194
     Eigenvalues ---    0.34202   0.34206   0.34212   0.34218   0.34225
     Eigenvalues ---    0.34251   0.34261   0.34302   0.34333   0.34368
     Eigenvalues ---    0.34406   0.34449   0.34725   0.34824   0.34906
     Eigenvalues ---    0.35185   0.35262   0.35526   0.36294   0.37570
     Eigenvalues ---    0.38401   0.41709   0.52880   0.53330   0.54983
 En-DIIS/RFO-DIIS/Sim-DIIS IScMMF=       -3 using points:    13   12   11   10    9    8    7    6    5    4
 RFO step:  Lambda=-3.00922672D-09.
 NNeg= 0 NGDIIS=10 SimSw=  2.50D-03 Rises=F DC=  8.07D-09 SmlDif=  1.00D-05
 NRisDI= 0 DoIntr=F SqrtH=F CThrHd= 10.0 CDAdj=  3.0
 RMS Error=  0.7149038246D-04 NUsed=10 OKEnD=F EnDIS=F
 InvSVX:  RCond= 3.93D-08 Info=           0 Equed=N FErr=  1.61D-13 BErr=  1.05D-16
 DIIS inversion failure, remove point  10.
 InvSVX:  RCond= 4.76D-08 Info=           0 Equed=N FErr=  1.18D-13 BErr=  9.04D-17
 DIIS inversion failure, remove point   9.
 InvSVX:  RCond= 6.40D-08 Info=           0 Equed=N FErr=  7.11D-14 BErr=  8.47D-17
 DIIS inversion failure, remove point   8.
 InvSVX:  RCond= 7.47D-08 Info=           0 Equed=N FErr=  4.56D-14 BErr=  4.19D-17
 DIIS inversion failure, remove point   7.
 InvSVX:  RCond= 8.84D-08 Info=           0 Equed=N FErr=  3.55D-14 BErr=  9.17D-17
 DIIS inversion failure, remove point   6.
 InvSVX:  RCond= 1.55D-07 Info=           0 Equed=N FErr=  2.53D-14 BErr=  1.07D-16
 RFO-DIIS uses    5 points instead of   10
 DidBck=F Rises=F RFO-DIIS coefs:    1.04575    0.11663   -0.17008   -0.03996    0.04766
                  RFO-DIIS coefs:    0.00000    0.00000    0.00000    0.00000    0.00000
 Iteration  1 RMS(Cart)=  0.00020204 RMS(Int)=  0.00000001
 Iteration  2 RMS(Cart)=  0.00000002 RMS(Int)=  0.00000000
 ITry= 1 IFail=0 DXMaxC= 1.22D-03 DCOld= 1.00D+10 DXMaxT= 2.12D-01 DXLimC= 3.00D+00 Rises=F
 Variable       Old X    -DE/DX   Delta X   Delta X   Delta X     New X
                                 (Linear)    (Quad)   (Total)
    R1        2.92989   0.00001   0.00000   0.00002   0.00002   2.92991
    R2        2.06972   0.00000   0.00000   0.00000   0.00000   2.06972
    R3        2.06727  -0.00000  -0.00000  -0.00000  -0.00000   2.06727
    R4        2.07023   0.00000   0.00000   0.00001   0.00001   2.07024
    R5        2.95321   0.00000   0.00002  -0.00000   0.00002   2.95323
    R6        2.91263  -0.00000   0.00001  -0.00001  -0.00000   2.91263
    R7        2.95935  -0.00000  -0.00001  -0.00002  -0.00003   2.95932
    R8        2.84646  -0.00000  -0.00000  -0.00000  -0.00000   2.84645
    R9        2.91724   0.00000  -0.00001   0.00001   0.00000   2.91724
   R10        2.09498  -0.00000   0.00000  -0.00000  -0.00000   2.09498
   R11        2.90662   0.00000   0.00000   0.00001   0.00001   2.90664
   R12        2.55685   0.00000   0.00000   0.00000   0.00001   2.55685
   R13        2.98379  -0.00000  -0.00001  -0.00001  -0.00002   2.98377
   R14        2.94992  -0.00000  -0.00001  -0.00001  -0.00001   2.94990
   R15        2.09689   0.00000  -0.00000   0.00001   0.00001   2.09690
   R16        2.94649   0.00000   0.00001   0.00001   0.00001   2.94650
   R17        2.90761   0.00001   0.00001   0.00001   0.00002   2.90763
   R18        2.96307   0.00000  -0.00000   0.00000   0.00000   2.96307
   R19        2.07083   0.00000  -0.00000   0.00000   0.00000   2.07083
   R20        2.07052   0.00000  -0.00000   0.00001   0.00000   2.07052
   R21        2.06975  -0.00000  -0.00000  -0.00000  -0.00000   2.06975
   R22        2.55188  -0.00000   0.00000  -0.00000  -0.00000   2.55188
   R23        2.84900  -0.00001  -0.00001  -0.00001  -0.00002   2.84897
   R24        2.76033  -0.00000  -0.00001  -0.00001  -0.00001   2.76032
   R25        2.05724   0.00000  -0.00000   0.00001   0.00000   2.05724
   R26        2.05365   0.00000  -0.00000   0.00000   0.00000   2.05365
   R27        2.91843  -0.00000   0.00001  -0.00001  -0.00001   2.91842
   R28        2.06907   0.00000  -0.00001   0.00001   0.00000   2.06908
   R29        2.07899   0.00000   0.00000  -0.00000   0.00000   2.07899
   R30        2.79074   0.00000  -0.00000   0.00001   0.00000   2.79074
   R31        2.91600  -0.00000   0.00001  -0.00001   0.00000   2.91600
   R32        2.07642   0.00000  -0.00000   0.00000   0.00000   2.07642
   R33        1.84883  -0.00000  -0.00000  -0.00000  -0.00000   1.84883
   R34        2.90739  -0.00000  -0.00000  -0.00001  -0.00001   2.90738
   R35        2.07627  -0.00000  -0.00000  -0.00001  -0.00001   2.07627
   R36        2.07710   0.00000   0.00000   0.00001   0.00001   2.07711
   R37        2.07163   0.00000  -0.00000   0.00001   0.00000   2.07164
   R38        2.07473   0.00000  -0.00000   0.00000   0.00000   2.07473
   R39        2.92288  -0.00000  -0.00000  -0.00000  -0.00001   2.92287
   R40        2.06748   0.00000   0.00000  -0.00000   0.00000   2.06749
   R41        2.07329   0.00000  -0.00001   0.00001   0.00000   2.07329
   R42        2.08132   0.00000  -0.00000   0.00001   0.00000   2.08133
   R43        2.07802  -0.00000  -0.00000  -0.00000  -0.00000   2.07801
   R44        2.96030  -0.00000  -0.00001  -0.00001  -0.00002   2.96028
   R45        2.07096   0.00000  -0.00000   0.00001   0.00000   2.07097
   R46        2.07355   0.00000   0.00000  -0.00000   0.00000   2.07355
   R47        2.96271   0.00000   0.00002  -0.00000   0.00002   2.96273
   R48        2.06514   0.00000  -0.00000   0.00000   0.00000   2.06515
   R49        2.07118  -0.00000  -0.00000  -0.00000  -0.00000   2.07118
   R50        2.94458   0.00000  -0.00000  -0.00000  -0.00001   2.94458
   R51        2.08774   0.00000  -0.00001   0.00002   0.00001   2.08774
   R52        2.94499   0.00001   0.00000   0.00001   0.00001   2.94500
   R53        2.92683  -0.00000   0.00001  -0.00001  -0.00001   2.92682
   R54        2.08579  -0.00000   0.00000  -0.00000  -0.00000   2.08579
   R55        2.91740   0.00000  -0.00000  -0.00000  -0.00000   2.91740
   R56        2.07045  -0.00000  -0.00000  -0.00000  -0.00000   2.07045
   R57        2.08324   0.00000  -0.00000   0.00000   0.00000   2.08324
   R58        2.91505  -0.00000  -0.00000  -0.00000  -0.00000   2.91505
   R59        2.07787  -0.00000   0.00000  -0.00000  -0.00000   2.07787
   R60        2.07065   0.00000   0.00000   0.00000   0.00000   2.07066
   R61        2.92561  -0.00000   0.00000  -0.00001  -0.00000   2.92560
   R62        2.08095   0.00000  -0.00000   0.00000   0.00000   2.08095
   R63        2.08342   0.00000  -0.00000  -0.00000  -0.00000   2.08342
   R64        2.91536  -0.00000  -0.00001   0.00000  -0.00001   2.91536
   R65        2.91537   0.00000   0.00000   0.00000   0.00000   2.91537
   R66        2.08447  -0.00000   0.00000  -0.00000  -0.00000   2.08447
   R67        2.07649   0.00000  -0.00000   0.00000   0.00000   2.07649
   R68        2.07359   0.00000  -0.00000   0.00000   0.00000   2.07359
   R69        2.07338   0.00000  -0.00000   0.00001   0.00000   2.07339
   R70        2.07696  -0.00000   0.00000  -0.00000  -0.00000   2.07696
   R71        2.07360   0.00000  -0.00000   0.00000   0.00000   2.07360
   R72        2.07072   0.00000  -0.00000   0.00000   0.00000   2.07073
   R73        2.07366   0.00000  -0.00000   0.00001   0.00000   2.07366
   R74        2.07368   0.00000  -0.00000   0.00000   0.00000   2.07368
   R75        2.07115  -0.00000  -0.00000  -0.00000  -0.00000   2.07115
    A1        1.93686  -0.00000   0.00001  -0.00001  -0.00000   1.93685
    A2        1.95260   0.00000  -0.00000   0.00001   0.00001   1.95261
    A3        1.94100   0.00000  -0.00000   0.00001   0.00000   1.94101
    A4        1.87067   0.00000   0.00000   0.00001   0.00001   1.87068
    A5        1.87772  -0.00000  -0.00000  -0.00001  -0.00001   1.87771
    A6        1.88156  -0.00000  -0.00001   0.00000  -0.00000   1.88155
    A7        1.92648  -0.00000  -0.00001  -0.00002  -0.00003   1.92645
    A8        1.93391  -0.00000   0.00000  -0.00001  -0.00001   1.93390
    A9        1.98012   0.00000  -0.00000   0.00001   0.00000   1.98013
   A10        1.86720   0.00000  -0.00000   0.00001   0.00001   1.86721
   A11        1.72944   0.00000   0.00001  -0.00000   0.00000   1.72945
   A12        2.01187   0.00000   0.00000   0.00001   0.00002   2.01188
   A13        1.99745  -0.00000  -0.00000  -0.00000  -0.00001   1.99744
   A14        1.81694   0.00000  -0.00001  -0.00001  -0.00002   1.81692
   A15        1.82373  -0.00000   0.00000  -0.00000  -0.00000   1.82373
   A16        2.11154   0.00000   0.00001  -0.00000   0.00001   2.11155
   A17        1.83246   0.00000   0.00000   0.00001   0.00002   1.83248
   A18        1.85830  -0.00000   0.00000   0.00001   0.00001   1.85831
   A19        2.00604   0.00000   0.00002   0.00000   0.00002   2.00605
   A20        2.15715   0.00000  -0.00002   0.00000  -0.00001   2.15713
   A21        2.09969  -0.00000  -0.00000  -0.00000  -0.00001   2.09968
   A22        1.98018  -0.00000  -0.00000  -0.00000  -0.00001   1.98017
   A23        1.96282   0.00000  -0.00000   0.00000   0.00000   1.96282
   A24        1.83508  -0.00000  -0.00001  -0.00001  -0.00002   1.83506
   A25        1.95740   0.00000   0.00001   0.00000   0.00002   1.95742
   A26        1.86045   0.00000  -0.00000   0.00002   0.00002   1.86047
   A27        1.85578  -0.00000   0.00000  -0.00002  -0.00001   1.85576
   A28        1.95007  -0.00000  -0.00000   0.00000   0.00000   1.95007
   A29        1.93373   0.00000  -0.00000   0.00002   0.00002   1.93374
   A30        1.92508  -0.00000   0.00001  -0.00000   0.00001   1.92509
   A31        1.85639  -0.00000  -0.00000  -0.00001  -0.00001   1.85638
   A32        1.90325   0.00000   0.00000  -0.00001  -0.00001   1.90324
   A33        1.89321  -0.00000  -0.00000  -0.00001  -0.00001   1.89320
   A34        1.91663   0.00000   0.00000   0.00000   0.00001   1.91664
   A35        1.94801   0.00000  -0.00001   0.00001  -0.00000   1.94801
   A36        1.93839   0.00000   0.00000  -0.00000  -0.00000   1.93838
   A37        1.87373  -0.00000   0.00000   0.00000   0.00000   1.87373
   A38        1.88537  -0.00000   0.00000  -0.00000  -0.00000   1.88537
   A39        1.89951  -0.00000   0.00000  -0.00000  -0.00000   1.89951
   A40        2.10242  -0.00000   0.00000  -0.00001  -0.00001   2.10240
   A41        2.02026  -0.00000  -0.00001  -0.00001  -0.00002   2.02024
   A42        2.15946   0.00000   0.00001   0.00002   0.00003   2.15949
   A43        2.12694   0.00000  -0.00000   0.00000   0.00000   2.12694
   A44        2.09517  -0.00000  -0.00000  -0.00001  -0.00001   2.09515
   A45        2.05967   0.00000   0.00000   0.00001   0.00001   2.05968
   A46        2.12106   0.00000   0.00000   0.00001   0.00001   2.12107
   A47        2.09761  -0.00000  -0.00000  -0.00001  -0.00002   2.09759
   A48        2.05846   0.00000   0.00000   0.00000   0.00000   2.05847
   A49        1.94313  -0.00000  -0.00001  -0.00001  -0.00002   1.94311
   A50        1.94268   0.00000   0.00002   0.00001   0.00004   1.94271
   A51        1.93066   0.00000  -0.00001   0.00002   0.00001   1.93066
   A52        1.92931  -0.00000  -0.00002  -0.00000  -0.00002   1.92929
   A53        1.84875   0.00000  -0.00001   0.00001   0.00000   1.84876
   A54        1.86555  -0.00000   0.00002  -0.00003  -0.00001   1.86554
   A55        1.83228  -0.00000  -0.00000  -0.00001  -0.00001   1.83227
   A56        1.94767   0.00000  -0.00001   0.00000  -0.00001   1.94766
   A57        1.92596  -0.00000   0.00001  -0.00002  -0.00001   1.92595
   A58        1.94856  -0.00000   0.00001  -0.00000   0.00001   1.94857
   A59        1.89065   0.00000   0.00001   0.00000   0.00001   1.89067
   A60        1.91659   0.00000  -0.00001   0.00002   0.00001   1.91661
   A61        1.93938  -0.00000   0.00000  -0.00000  -0.00000   1.93938
   A62        1.94519  -0.00000   0.00001   0.00000   0.00001   1.94520
   A63        1.90948   0.00000   0.00000  -0.00001  -0.00000   1.90948
   A64        1.89709   0.00000  -0.00001   0.00001   0.00000   1.89709
   A65        1.93481  -0.00000   0.00002  -0.00001   0.00000   1.93481
   A66        1.91523   0.00000  -0.00001   0.00001  -0.00000   1.91523
   A67        1.85973  -0.00000  -0.00000  -0.00000  -0.00001   1.85972
   A68        1.95063  -0.00000  -0.00000   0.00000  -0.00000   1.95063
   A69        1.91894  -0.00000   0.00000  -0.00001  -0.00001   1.91894
   A70        1.91206   0.00000  -0.00001   0.00001  -0.00000   1.91206
   A71        1.92712   0.00000   0.00001   0.00000   0.00001   1.92713
   A72        1.89574   0.00000   0.00001   0.00000   0.00001   1.89576
   A73        1.85679  -0.00000  -0.00000  -0.00001  -0.00001   1.85678
   A74        2.00261  -0.00000  -0.00001  -0.00000  -0.00001   2.00260
   A75        1.90968   0.00000  -0.00001   0.00003   0.00002   1.90969
   A76        1.90456   0.00000   0.00000   0.00000   0.00000   1.90457
   A77        1.88259  -0.00000   0.00000  -0.00000  -0.00000   1.88259
   A78        1.90337   0.00000   0.00001  -0.00001   0.00000   1.90337
   A79        1.85535  -0.00000   0.00000  -0.00002  -0.00001   1.85533
   A80        1.93671   0.00000  -0.00001   0.00001   0.00000   1.93672
   A81        1.90118  -0.00000  -0.00000   0.00000  -0.00000   1.90118
   A82        1.93702  -0.00000   0.00000  -0.00001  -0.00001   1.93701
   A83        1.92176  -0.00000   0.00000  -0.00000   0.00000   1.92176
   A84        1.90051  -0.00000   0.00001   0.00000   0.00001   1.90052
   A85        1.86540   0.00000   0.00000  -0.00000  -0.00000   1.86540
   A86        1.81782  -0.00000   0.00000   0.00000   0.00001   1.81783
   A87        1.95668  -0.00000   0.00003  -0.00002   0.00001   1.95669
   A88        1.92979   0.00000  -0.00003   0.00002  -0.00001   1.92978
   A89        1.95755   0.00000   0.00000  -0.00000   0.00000   1.95755
   A90        1.93426   0.00000   0.00000   0.00001   0.00001   1.93427
   A91        1.86903  -0.00000  -0.00000  -0.00001  -0.00001   1.86901
   A92        1.85034   0.00000   0.00000  -0.00001  -0.00000   1.85034
   A93        1.92973  -0.00000   0.00001  -0.00000   0.00001   1.92974
   A94        1.94454  -0.00000   0.00000  -0.00000   0.00000   1.94454
   A95        1.94953   0.00000   0.00000   0.00001   0.00001   1.94954
   A96        1.93095  -0.00000  -0.00002   0.00000  -0.00001   1.93094
   A97        1.86032  -0.00000   0.00000  -0.00000  -0.00000   1.86032
   A98        1.80800  -0.00000   0.00000  -0.00001  -0.00001   1.80799
   A99        2.10784  -0.00000  -0.00000   0.00001   0.00001   2.10784
   A100       1.80870   0.00000   0.00001  -0.00001   0.00000   1.80870
   A101       2.06717   0.00000  -0.00001   0.00003   0.00002   2.06719
   A102       1.84187  -0.00000   0.00001  -0.00004  -0.00003   1.84183
   A103       1.79739  -0.00000  -0.00000  -0.00000  -0.00000   1.79738
   A104       2.10509   0.00000  -0.00000   0.00000   0.00000   2.10509
   A105       1.91122  -0.00000   0.00000   0.00001   0.00001   1.91123
   A106       1.82648  -0.00000   0.00001  -0.00002  -0.00001   1.82647
   A107       1.92810   0.00000   0.00000   0.00001   0.00001   1.92812
   A108       1.81974  -0.00000  -0.00001   0.00000  -0.00001   1.81973
   A109       1.85184  -0.00000   0.00000  -0.00001  -0.00001   1.85183
   A110       2.07928  -0.00000   0.00002  -0.00002  -0.00001   2.07927
   A111       1.91408   0.00000  -0.00000   0.00000  -0.00000   1.91408
   A112       1.84280   0.00000   0.00000   0.00000   0.00001   1.84280
   A113       1.89709   0.00000  -0.00001   0.00002   0.00001   1.89710
   A114       1.87389   0.00000  -0.00000   0.00000  -0.00000   1.87389
   A115       1.84160  -0.00000  -0.00000  -0.00000  -0.00000   1.84159
   A116       1.95171   0.00000  -0.00000   0.00001   0.00001   1.95171
   A117       1.92329  -0.00000   0.00000  -0.00001  -0.00001   1.92328
   A118       1.91968   0.00000   0.00001  -0.00000   0.00000   1.91968
   A119       1.89844  -0.00000   0.00001   0.00000   0.00001   1.89845
   A120       1.90697  -0.00000  -0.00000  -0.00001  -0.00001   1.90695
   A121       1.86141   0.00000  -0.00001   0.00001  -0.00000   1.86141
   A122       2.01032   0.00000   0.00001  -0.00001   0.00000   2.01033
   A123       1.89363   0.00000   0.00000   0.00001   0.00001   1.89365
   A124       1.90947  -0.00000  -0.00000  -0.00000  -0.00000   1.90947
   A125       1.89237  -0.00000  -0.00001  -0.00000  -0.00001   1.89236
   A126       1.89792   0.00000   0.00000  -0.00000  -0.00000   1.89792
   A127       1.85377   0.00000  -0.00000   0.00001   0.00000   1.85377
   A128       1.92798  -0.00000  -0.00000   0.00000   0.00000   1.92798
   A129       1.96273   0.00000   0.00000   0.00000   0.00000   1.96274
   A130       1.87733  -0.00000  -0.00000   0.00000  -0.00000   1.87733
   A131       1.92650  -0.00000   0.00000  -0.00001  -0.00000   1.92650
   A132       1.88197   0.00000  -0.00000   0.00000   0.00000   1.88197
   A133       1.88435  -0.00000  -0.00000  -0.00000  -0.00000   1.88435
   A134       1.93134   0.00000   0.00000   0.00000   0.00000   1.93134
   A135       1.94201   0.00000   0.00000   0.00001   0.00001   1.94202
   A136       1.94054   0.00000  -0.00000   0.00000   0.00000   1.94054
   A137       1.88194  -0.00000  -0.00000  -0.00000  -0.00000   1.88194
   A138       1.88090  -0.00000  -0.00000  -0.00000  -0.00000   1.88090
   A139       1.88471  -0.00000   0.00000  -0.00001  -0.00001   1.88470
   A140       1.92899  -0.00000   0.00000  -0.00001  -0.00000   1.92899
   A141       1.93396  -0.00000   0.00000  -0.00000  -0.00000   1.93396
   A142       1.95608   0.00000  -0.00000   0.00000  -0.00000   1.95608
   A143       1.88033   0.00000  -0.00000   0.00001   0.00000   1.88033
   A144       1.88390   0.00000   0.00000   0.00000   0.00001   1.88391
   A145       1.87784  -0.00000   0.00000  -0.00000  -0.00000   1.87784
   A146       1.93543  -0.00000   0.00001  -0.00001  -0.00001   1.93543
   A147       1.93308   0.00000   0.00000  -0.00000   0.00000   1.93308
   A148       1.95266   0.00000  -0.00001   0.00002   0.00001   1.95267
   A149       1.88202  -0.00000  -0.00000  -0.00000  -0.00000   1.88201
   A150       1.87763  -0.00000   0.00001  -0.00001  -0.00000   1.87763
   A151       1.88021  -0.00000  -0.00000   0.00000   0.00000   1.88021
    D1       -0.74250   0.00000   0.00011   0.00001   0.00013  -0.74237
    D2        1.32265  -0.00000   0.00011   0.00001   0.00012   1.32277
    D3       -2.66539  -0.00000   0.00011   0.00003   0.00014  -2.66525
    D4        1.34593   0.00000   0.00012   0.00002   0.00014   1.34607
    D5       -2.87210  -0.00000   0.00012   0.00001   0.00013  -2.87197
    D6       -0.57696   0.00000   0.00012   0.00003   0.00015  -0.57681
    D7       -2.83211   0.00000   0.00011   0.00003   0.00014  -2.83196
    D8       -0.76696   0.00000   0.00011   0.00003   0.00013  -0.76683
    D9        1.52818   0.00000   0.00011   0.00005   0.00015   1.52834
   D10        1.08409  -0.00000   0.00001  -0.00000   0.00001   1.08410
   D11       -1.25826  -0.00000   0.00002   0.00001   0.00003  -1.25823
   D12        3.07844  -0.00000   0.00002   0.00001   0.00002   3.07846
   D13       -1.02145   0.00000   0.00001   0.00001   0.00003  -1.02142
   D14        2.91939   0.00000   0.00002   0.00003   0.00004   2.91943
   D15        0.97290   0.00000   0.00002   0.00002   0.00004   0.97294
   D16       -3.11690   0.00000   0.00001  -0.00000   0.00001  -3.11689
   D17        0.82394   0.00000   0.00001   0.00001   0.00002   0.82396
   D18       -1.12255   0.00000   0.00001   0.00001   0.00002  -1.12253
   D19       -1.06726   0.00000   0.00003   0.00001   0.00004  -1.06722
   D20        3.09753   0.00000   0.00004   0.00000   0.00004   3.09757
   D21        1.04841   0.00000   0.00004   0.00001   0.00005   1.04846
   D22        1.03354  -0.00000   0.00003  -0.00002   0.00001   1.03355
   D23       -1.08485  -0.00000   0.00003  -0.00002   0.00001  -1.08484
   D24       -3.13397  -0.00000   0.00003  -0.00001   0.00002  -3.13396
   D25        2.93730   0.00000   0.00003  -0.00001   0.00003   2.93733
   D26        0.81891  -0.00000   0.00004  -0.00001   0.00002   0.81894
   D27       -1.23021   0.00000   0.00004  -0.00000   0.00003  -1.23018
   D28        1.29207   0.00000   0.00003  -0.00007  -0.00004   1.29202
   D29       -1.07418  -0.00000   0.00004  -0.00012  -0.00008  -1.07426
   D30       -3.07119  -0.00000   0.00004  -0.00012  -0.00008  -3.07127
   D31       -0.74978   0.00000   0.00003  -0.00005  -0.00001  -0.74980
   D32       -3.11603  -0.00000   0.00005  -0.00010  -0.00005  -3.11608
   D33        1.17015  -0.00000   0.00004  -0.00009  -0.00005   1.17010
   D34       -2.73497   0.00000   0.00003  -0.00006  -0.00003  -2.73500
   D35        1.18197  -0.00000   0.00005  -0.00011  -0.00007   1.18190
   D36       -0.81504  -0.00000   0.00004  -0.00011  -0.00007  -0.81511
   D37        0.87680  -0.00000  -0.00004  -0.00000  -0.00004   0.87676
   D38       -2.48007  -0.00000  -0.00006   0.00001  -0.00005  -2.48012
   D39        3.07267  -0.00000  -0.00005  -0.00002  -0.00007   3.07260
   D40       -0.28420  -0.00000  -0.00008  -0.00001  -0.00009  -0.28429
   D41       -1.11241   0.00000  -0.00004  -0.00000  -0.00004  -1.11246
   D42        1.81390  -0.00000  -0.00007   0.00001  -0.00005   1.81384
   D43       -0.57456   0.00000  -0.00005   0.00003  -0.00002  -0.57458
   D44       -2.69492   0.00000  -0.00007   0.00004  -0.00003  -2.69495
   D45        1.50401   0.00000  -0.00006   0.00005  -0.00001   1.50400
   D46       -2.85104   0.00000  -0.00004   0.00005   0.00001  -2.85103
   D47        1.31178   0.00000  -0.00006   0.00006  -0.00000   1.31178
   D48       -0.77247   0.00000  -0.00005   0.00007   0.00002  -0.77245
   D49        1.34673  -0.00000  -0.00005   0.00003  -0.00002   1.34670
   D50       -0.77363  -0.00000  -0.00007   0.00004  -0.00003  -0.77367
   D51       -2.85789   0.00000  -0.00006   0.00005  -0.00002  -2.85790
   D52       -2.95092  -0.00000   0.00001  -0.00002  -0.00001  -2.95093
   D53       -0.70611  -0.00000   0.00002  -0.00001   0.00001  -0.70609
   D54        1.30591  -0.00000   0.00002  -0.00003  -0.00002   1.30589
   D55        0.39826  -0.00000   0.00003  -0.00003   0.00000   0.39826
   D56        2.64307  -0.00000   0.00005  -0.00002   0.00003   2.64310
   D57       -1.62810  -0.00000   0.00005  -0.00005  -0.00000  -1.62810
   D58       -2.87503  -0.00000   0.00001  -0.00002  -0.00001  -2.87504
   D59        0.14609   0.00000   0.00000   0.00001   0.00001   0.14610
   D60        0.04028  -0.00000  -0.00002  -0.00000  -0.00002   0.04026
   D61        3.06140   0.00000  -0.00002   0.00002  -0.00000   3.06139
   D62        1.40600  -0.00000  -0.00003   0.00004   0.00001   1.40600
   D63       -0.66064  -0.00000  -0.00002   0.00003   0.00001  -0.66063
   D64       -2.75717   0.00000  -0.00002   0.00002   0.00000  -2.75717
   D65       -0.84159   0.00000  -0.00004   0.00003  -0.00001  -0.84160
   D66       -2.90823   0.00000  -0.00003   0.00002  -0.00001  -2.90824
   D67        1.27842   0.00000  -0.00003   0.00002  -0.00001   1.27841
   D68       -2.86583  -0.00000  -0.00005   0.00004  -0.00001  -2.86584
   D69        1.35071   0.00000  -0.00004   0.00003  -0.00001   1.35071
   D70       -0.74582   0.00000  -0.00004   0.00002  -0.00001  -0.74583
   D71        0.75111  -0.00000   0.00001  -0.00001   0.00000   0.75111
   D72       -1.36721  -0.00000   0.00002  -0.00002  -0.00000  -1.36721
   D73        2.89264  -0.00000   0.00002  -0.00002   0.00000   2.89264
   D74        3.00776  -0.00000   0.00002  -0.00001   0.00001   3.00777
   D75        0.88945  -0.00000   0.00002  -0.00002   0.00001   0.88945
   D76       -1.13389  -0.00000   0.00002  -0.00001   0.00001  -1.13388
   D77       -1.24836   0.00000   0.00002   0.00001   0.00003  -1.24833
   D78        2.91651   0.00000   0.00003  -0.00000   0.00003   2.91654
   D79        0.89317   0.00000   0.00003   0.00000   0.00003   0.89320
   D80       -2.96153  -0.00000   0.00007  -0.00013  -0.00006  -2.96159
   D81        1.24583  -0.00000   0.00008  -0.00014  -0.00007   1.24577
   D82       -0.87729  -0.00000   0.00008  -0.00014  -0.00006  -0.87735
   D83       -0.84933   0.00000   0.00006  -0.00011  -0.00005  -0.84938
   D84       -2.92516   0.00000   0.00007  -0.00012  -0.00005  -2.92521
   D85        1.23491   0.00000   0.00007  -0.00011  -0.00005   1.23487
   D86        1.18906  -0.00000   0.00006  -0.00013  -0.00007   1.18899
   D87       -0.88676  -0.00000   0.00006  -0.00013  -0.00007  -0.88683
   D88       -3.00988  -0.00000   0.00007  -0.00013  -0.00007  -3.00995
   D89        0.56388  -0.00000  -0.00001  -0.00000  -0.00001   0.56387
   D90       -2.62509  -0.00000   0.00001  -0.00003  -0.00002  -2.62511
   D91       -1.55878   0.00000   0.00000  -0.00001  -0.00001  -1.55879
   D92        1.53545  -0.00000   0.00002  -0.00005  -0.00003   1.53542
   D93        2.67932  -0.00000   0.00000   0.00000   0.00001   2.67933
   D94       -0.50964  -0.00000   0.00002  -0.00003  -0.00001  -0.50964
   D95        1.55580   0.00000  -0.00003   0.00004   0.00000   1.55580
   D96       -0.59074   0.00000  -0.00004   0.00004  -0.00001  -0.59074
   D97       -2.62537   0.00000  -0.00003   0.00005   0.00002  -2.62536
   D98       -2.57979   0.00000  -0.00003   0.00003   0.00000  -2.57979
   D99        1.55686  -0.00000  -0.00004   0.00003  -0.00000   1.55685
   D100      -0.47778   0.00000  -0.00002   0.00004   0.00002  -0.47776
   D101      -0.56496  -0.00000  -0.00004   0.00002  -0.00002  -0.56498
   D102      -2.71150  -0.00000  -0.00004   0.00001  -0.00003  -2.71153
   D103       1.53705  -0.00000  -0.00003   0.00003  -0.00000   1.53705
   D104      -0.14782   0.00000   0.00002  -0.00002  -0.00000  -0.14782
   D105       3.05186   0.00000   0.00000  -0.00002  -0.00002   3.05184
   D106       3.04508   0.00000   0.00000   0.00001   0.00001   3.04509
   D107      -0.03843   0.00000  -0.00002   0.00001  -0.00001  -0.03843
   D108       1.08951   0.00000   0.00004   0.00004   0.00008   1.08959
   D109      -3.03252   0.00000   0.00003   0.00004   0.00007  -3.03245
   D110      -0.96117  -0.00000   0.00006   0.00002   0.00008  -0.96109
   D111      -2.10118   0.00000   0.00006   0.00000   0.00006  -2.10112
   D112       0.05998  -0.00000   0.00005   0.00000   0.00005   0.06003
   D113       2.13132  -0.00000   0.00008  -0.00001   0.00007   2.13139
   D114      -0.18976   0.00000  -0.00001   0.00003   0.00002  -0.18974
   D115       3.06970   0.00000  -0.00000   0.00001   0.00001   3.06971
   D116       2.89488   0.00000   0.00001   0.00003   0.00004   2.89492
   D117      -0.12884   0.00000   0.00002   0.00001   0.00002  -0.12882
   D118      -2.59842  -0.00000  -0.00008  -0.00002  -0.00011  -2.59853
   D119      -0.48479  -0.00000  -0.00008  -0.00003  -0.00011  -0.48490
   D120       1.65121  -0.00000  -0.00010  -0.00001  -0.00011   1.65110
   D121       1.51605  -0.00000  -0.00010  -0.00003  -0.00013   1.51592
   D122      -2.65351  -0.00000  -0.00009  -0.00004  -0.00013  -2.65364
   D123      -0.51751  -0.00000  -0.00011  -0.00002  -0.00013  -0.51764
   D124      -0.49873   0.00000  -0.00010  -0.00001  -0.00011  -0.49884
   D125       1.61490  -0.00000  -0.00010  -0.00001  -0.00011   1.61479
   D126      -2.53228   0.00000  -0.00012   0.00001  -0.00011  -2.53239
   D127      -2.98378   0.00000   0.00012   0.00010   0.00022  -2.98356
   D128       1.18636   0.00000   0.00013   0.00011   0.00023   1.18660
   D129      -0.92612  -0.00000   0.00013   0.00008   0.00021  -0.92592
   D130      -0.55539  -0.00000   0.00006   0.00002   0.00008  -0.55531
   D131      -2.70135   0.00000   0.00003   0.00004   0.00007  -2.70128
   D132       1.55754   0.00000   0.00004   0.00004   0.00008   1.55762
   D133       1.48910  -0.00000   0.00006   0.00001   0.00007   1.48917
   D134      -0.65686  -0.00000   0.00003   0.00003   0.00006  -0.65680
   D135      -2.68116  -0.00000   0.00004   0.00003   0.00007  -2.68109
   D136      -2.69676   0.00000   0.00007   0.00003   0.00009  -2.69667
   D137       1.44046   0.00000   0.00004   0.00005   0.00009   1.44055
   D138      -0.58384   0.00000   0.00005   0.00005   0.00010  -0.58374
   D139       1.13980   0.00000  -0.00000  -0.00001  -0.00002   1.13979
   D140      -3.00150  -0.00000  -0.00000  -0.00002  -0.00002  -3.00151
   D141      -0.97171  -0.00000   0.00000  -0.00003  -0.00002  -0.97173
   D142      -3.01197   0.00000   0.00002  -0.00003  -0.00001  -3.01198
   D143      -0.87009  -0.00000   0.00002  -0.00004  -0.00002  -0.87010
   D144       1.15970  -0.00000   0.00003  -0.00004  -0.00002   1.15968
   D145      -0.96250  -0.00000   0.00001  -0.00004  -0.00002  -0.96252
   D146       1.17939  -0.00000   0.00002  -0.00004  -0.00002   1.17936
   D147      -3.07401  -0.00000   0.00002  -0.00005  -0.00003  -3.07404
   D148      -0.95027  -0.00000  -0.00004   0.00002  -0.00002  -0.95029
   D149       1.15599   0.00000  -0.00004   0.00003  -0.00001   1.15598
   D150      -3.08727   0.00000  -0.00004   0.00003  -0.00001  -3.08729
   D151       1.18278   0.00000  -0.00005   0.00005  -0.00000   1.18278
   D152      -2.99414   0.00000  -0.00006   0.00006   0.00000  -2.99414
   D153      -0.95422   0.00000  -0.00005   0.00006   0.00000  -0.95422
   D154      -3.09245  -0.00000  -0.00004   0.00002  -0.00002  -3.09246
   D155      -0.98618  -0.00000  -0.00005   0.00003  -0.00002  -0.98620
   D156       1.05374  -0.00000  -0.00004   0.00003  -0.00001   1.05372
   D157       0.09349   0.00000   0.00007  -0.00005   0.00002   0.09351
   D158       2.20946   0.00000   0.00008  -0.00005   0.00003   2.20949
   D159      -2.00833   0.00000   0.00009  -0.00005   0.00004  -2.00830
   D160       2.21327   0.00000   0.00011  -0.00007   0.00004   2.21331
   D161      -1.95395   0.00000   0.00012  -0.00006   0.00005  -1.95390
   D162       0.11144  -0.00000   0.00013  -0.00007   0.00005   0.11150
   D163      -1.98203  -0.00000   0.00010  -0.00008   0.00002  -1.98201
   D164       0.13393   0.00000   0.00011  -0.00007   0.00004   0.13397
   D165       2.19932  -0.00000   0.00012  -0.00008   0.00004   2.19937
   D166       0.41725  -0.00000  -0.00006   0.00006  -0.00000   0.41725
   D167       2.80565   0.00000  -0.00007   0.00010   0.00003   2.80567
   D168      -1.47804   0.00000  -0.00008   0.00009   0.00001  -1.47803
   D169      -1.68591  -0.00000  -0.00008   0.00006  -0.00001  -1.68593
   D170       0.70249   0.00000  -0.00009   0.00010   0.00001   0.70250
   D171       2.70198   0.00000  -0.00009   0.00009  -0.00000   2.70198
   D172       2.52789  -0.00000  -0.00007   0.00006  -0.00001   2.52787
   D173      -1.36690   0.00000  -0.00008   0.00010   0.00001  -1.36689
   D174       0.63259   0.00000  -0.00009   0.00008  -0.00000   0.63259
   D175       1.07052  -0.00000  -0.00008  -0.00004  -0.00012   1.07041
   D176      -2.94643   0.00000  -0.00008  -0.00001  -0.00008  -2.94651
   D177      -0.96768  -0.00000  -0.00007  -0.00003  -0.00010  -0.96778
   D178      -1.18634  -0.00000  -0.00007  -0.00007  -0.00015  -1.18648
   D179       1.07990  -0.00000  -0.00007  -0.00004  -0.00011   1.07978
   D180       3.05864  -0.00000  -0.00006  -0.00006  -0.00013   3.05851
   D181       3.07338  -0.00000  -0.00007  -0.00004  -0.00011   3.07327
   D182      -0.94357   0.00000  -0.00007  -0.00001  -0.00008  -0.94365
   D183       1.03518  -0.00000  -0.00006  -0.00003  -0.00009   1.03508
   D184       1.18348   0.00000  -0.00005   0.00002  -0.00004   1.18345
   D185      -1.01704   0.00000  -0.00005   0.00001  -0.00004  -1.01708
   D186      -2.99348   0.00000  -0.00004   0.00001  -0.00004  -2.99352
   D187      -1.07534  -0.00000  -0.00006  -0.00001  -0.00007  -1.07541
   D188       3.00733  -0.00000  -0.00005  -0.00002  -0.00007   3.00726
   D189       1.03088  -0.00000  -0.00005  -0.00002  -0.00007   1.03081
   D190      -3.05807  -0.00000  -0.00005  -0.00001  -0.00006  -3.05813
   D191       1.02460  -0.00000  -0.00005  -0.00002  -0.00006   1.02454
   D192      -0.95185  -0.00000  -0.00004  -0.00001  -0.00006  -0.95190
   D193       0.94752  -0.00000   0.00003   0.00005   0.00008   0.94760
   D194       3.03638  -0.00000   0.00004   0.00003   0.00007   3.03645
   D195      -1.14882  -0.00000   0.00003   0.00005   0.00008  -1.14874
   D196      -2.97694   0.00000   0.00003   0.00007   0.00010  -2.97683
   D197      -0.88809   0.00000   0.00004   0.00006   0.00010  -0.88799
   D198       1.20991   0.00000   0.00003   0.00007   0.00010   1.21001
   D199      -1.01472   0.00000   0.00002   0.00007   0.00009  -1.01462
   D200       1.07414   0.00000   0.00003   0.00006   0.00009   1.07422
   D201      -3.11105   0.00000   0.00002   0.00008   0.00009  -3.11096
   D202       2.93794   0.00000   0.00011   0.00000   0.00011   2.93805
   D203       0.82417   0.00000   0.00010  -0.00000   0.00010   0.82427
   D204      -1.22315  -0.00000   0.00011  -0.00000   0.00010  -1.22305
   D205      -1.13669   0.00000   0.00010   0.00001   0.00011  -1.13658
   D206       3.03274   0.00000   0.00010  -0.00000   0.00009   3.03283
   D207       0.98541   0.00000   0.00010  -0.00000   0.00010   0.98551
   D208       0.84750   0.00000   0.00009   0.00001   0.00011   0.84761
   D209      -1.26626  -0.00000   0.00009   0.00000   0.00009  -1.26617
   D210       2.96960  -0.00000   0.00009   0.00000   0.00010   2.96970
   D211      -3.09099   0.00000   0.00019   0.00003   0.00022  -3.09077
   D212      -0.96678   0.00000   0.00018   0.00003   0.00021  -0.96657
   D213       1.04849   0.00000   0.00018   0.00004   0.00022   1.04871
   D214      -0.96289   0.00000   0.00019   0.00003   0.00022  -0.96267
   D215       1.16132   0.00000   0.00019   0.00003   0.00022   1.16153
   D216      -3.10659   0.00000   0.00018   0.00004   0.00022  -3.10637
   D217       1.06279   0.00000   0.00018   0.00003   0.00022   1.06300
   D218      -3.09619  -0.00000   0.00018   0.00003   0.00021  -3.09598
   D219      -1.08092   0.00000   0.00017   0.00004   0.00022  -1.08070
   D220       2.98853   0.00000   0.00005   0.00009   0.00013   2.98866
   D221      -1.13374  -0.00000   0.00005   0.00008   0.00014  -1.13361
   D222       0.93872   0.00000   0.00005   0.00008   0.00013   0.93885
   D223       0.86364   0.00000   0.00004   0.00008   0.00013   0.86377
   D224       3.02456  -0.00000   0.00005   0.00008   0.00013   3.02468
   D225      -1.18616  -0.00000   0.00005   0.00007   0.00012  -1.18604
   D226      -1.14481   0.00000   0.00006   0.00008   0.00013  -1.14467
   D227       1.01611  -0.00000   0.00006   0.00007   0.00013   1.01624
   D228       3.08858   0.00000   0.00006   0.00007   0.00013   3.08870
   D229       1.08929   0.00000   0.00008  -0.00001   0.00007   1.08936
   D230      -1.00263   0.00000   0.00007  -0.00001   0.00006  -1.00257
   D231      -3.10424   0.00000   0.00007  -0.00000   0.00007  -3.10417
   D232      -1.09238  -0.00000   0.00007  -0.00001   0.00006  -1.09231
   D233       3.09889  -0.00000   0.00007  -0.00001   0.00006   3.09895
   D234       0.99728  -0.00000   0.00007  -0.00000   0.00006   0.99734
   D235       3.13623   0.00000   0.00007  -0.00000   0.00007   3.13630
   D236       1.04431  -0.00000   0.00007  -0.00001   0.00006   1.04438
   D237      -1.05730   0.00000   0.00007   0.00000   0.00007  -1.05723
   D238      -1.04495   0.00000   0.00005  -0.00003   0.00001  -1.04493
   D239      -3.12807   0.00000   0.00005  -0.00003   0.00002  -3.12806
   D240       1.05722   0.00000   0.00005  -0.00003   0.00002   1.05724
   D241       1.11679  -0.00000   0.00005  -0.00003   0.00002   1.11681
   D242      -0.96633  -0.00000   0.00005  -0.00003   0.00002  -0.96632
   D243      -3.06422   0.00000   0.00005  -0.00003   0.00002  -3.06420
   D244      -3.11329  -0.00000   0.00005  -0.00003   0.00002  -3.11327
   D245       1.08677  -0.00000   0.00005  -0.00003   0.00002   1.08679
   D246      -1.01112   0.00000   0.00005  -0.00003   0.00002  -1.01109
         Item               Value     Threshold  Converged?
 Maximum Force            0.000007     0.000450     YES
 RMS     Force            0.000001     0.000300     YES
 Maximum Displacement     0.001222     0.001800     YES
 RMS     Displacement     0.000202     0.001200     YES
 Predicted change in Energy=-4.421503D-09
 Optimization completed.
    -- Stationary point found.
                           ----------------------------
                           !   Optimized Parameters   !
                           ! (Angstroms and Degrees)  !
 --------------------------                            --------------------------
 ! Name  Definition              Value          Derivative Info.                !
 --------------------------------------------------------------------------------
 ! R1    R(1,2)                  1.5504         -DE/DX =    0.0                 !
 ! R2    R(1,29)                 1.0952         -DE/DX =    0.0                 !
 ! R3    R(1,30)                 1.094          -DE/DX =    0.0                 !
 ! R4    R(1,31)                 1.0955         -DE/DX =    0.0                 !
 ! R5    R(2,3)                  1.5628         -DE/DX =    0.0                 !
 ! R6    R(2,17)                 1.5413         -DE/DX =    0.0                 !
 ! R7    R(2,20)                 1.566          -DE/DX =    0.0                 !
 ! R8    R(3,4)                  1.5063         -DE/DX =    0.0                 !
 ! R9    R(3,18)                 1.5437         -DE/DX =    0.0                 !
 ! R10   R(3,32)                 1.1086         -DE/DX =    0.0                 !
 ! R11   R(4,5)                  1.5381         -DE/DX =    0.0                 !
 ! R12   R(4,10)                 1.353          -DE/DX =    0.0                 !
 ! R13   R(5,6)                  1.579          -DE/DX =    0.0                 !
 ! R14   R(5,16)                 1.561          -DE/DX =    0.0                 !
 ! R15   R(5,33)                 1.1096         -DE/DX =    0.0                 !
 ! R16   R(6,7)                  1.5592         -DE/DX =    0.0                 !
 ! R17   R(6,8)                  1.5386         -DE/DX =    0.0                 !
 ! R18   R(6,15)                 1.568          -DE/DX =    0.0                 !
 ! R19   R(7,34)                 1.0958         -DE/DX =    0.0                 !
 ! R20   R(7,35)                 1.0957         -DE/DX =    0.0                 !
 ! R21   R(7,36)                 1.0953         -DE/DX =    0.0                 !
 ! R22   R(8,9)                  1.3504         -DE/DX =    0.0                 !
 ! R23   R(8,11)                 1.5076         -DE/DX =    0.0                 !
 ! R24   R(9,10)                 1.4607         -DE/DX =    0.0                 !
 ! R25   R(9,37)                 1.0886         -DE/DX =    0.0                 !
 ! R26   R(10,38)                1.0867         -DE/DX =    0.0                 !
 ! R27   R(11,12)                1.5444         -DE/DX =    0.0                 !
 ! R28   R(11,39)                1.0949         -DE/DX =    0.0                 !
 ! R29   R(11,40)                1.1002         -DE/DX =    0.0                 !
 ! R30   R(12,13)                1.4768         -DE/DX =    0.0                 !
 ! R31   R(12,14)                1.5431         -DE/DX =    0.0                 !
 ! R32   R(12,41)                1.0988         -DE/DX =    0.0                 !
 ! R33   R(13,42)                0.9784         -DE/DX =    0.0                 !
 ! R34   R(14,15)                1.5385         -DE/DX =    0.0                 !
 ! R35   R(14,43)                1.0987         -DE/DX =    0.0                 !
 ! R36   R(14,44)                1.0992         -DE/DX =    0.0                 !
 ! R37   R(15,45)                1.0963         -DE/DX =    0.0                 !
 ! R38   R(15,46)                1.0979         -DE/DX =    0.0                 !
 ! R39   R(16,17)                1.5467         -DE/DX =    0.0                 !
 ! R40   R(16,47)                1.0941         -DE/DX =    0.0                 !
 ! R41   R(16,48)                1.0971         -DE/DX =    0.0                 !
 ! R42   R(17,49)                1.1014         -DE/DX =    0.0                 !
 ! R43   R(17,50)                1.0996         -DE/DX =    0.0                 !
 ! R44   R(18,19)                1.5665         -DE/DX =    0.0                 !
 ! R45   R(18,51)                1.0959         -DE/DX =    0.0                 !
 ! R46   R(18,52)                1.0973         -DE/DX =    0.0                 !
 ! R47   R(19,20)                1.5678         -DE/DX =    0.0                 !
 ! R48   R(19,53)                1.0928         -DE/DX =    0.0                 !
 ! R49   R(19,54)                1.096          -DE/DX =    0.0                 !
 ! R50   R(20,21)                1.5582         -DE/DX =    0.0                 !
 ! R51   R(20,55)                1.1048         -DE/DX =    0.0                 !
 ! R52   R(21,22)                1.5584         -DE/DX =    0.0                 !
 ! R53   R(21,28)                1.5488         -DE/DX =    0.0                 !
 ! R54   R(21,56)                1.1038         -DE/DX =    0.0                 !
 ! R55   R(22,23)                1.5438         -DE/DX =    0.0                 !
 ! R56   R(22,57)                1.0956         -DE/DX =    0.0                 !
 ! R57   R(22,58)                1.1024         -DE/DX =    0.0                 !
 ! R58   R(23,24)                1.5426         -DE/DX =    0.0                 !
 ! R59   R(23,59)                1.0996         -DE/DX =    0.0                 !
 ! R60   R(23,60)                1.0957         -DE/DX =    0.0                 !
 ! R61   R(24,25)                1.5482         -DE/DX =    0.0                 !
 ! R62   R(24,61)                1.1012         -DE/DX =    0.0                 !
 ! R63   R(24,62)                1.1025         -DE/DX =    0.0                 !
 ! R64   R(25,26)                1.5427         -DE/DX =    0.0                 !
 ! R65   R(25,27)                1.5427         -DE/DX =    0.0                 !
 ! R66   R(25,63)                1.1031         -DE/DX =    0.0                 !
 ! R67   R(26,64)                1.0988         -DE/DX =    0.0                 !
 ! R68   R(26,65)                1.0973         -DE/DX =    0.0                 !
 ! R69   R(26,66)                1.0972         -DE/DX =    0.0                 !
 ! R70   R(27,67)                1.0991         -DE/DX =    0.0                 !
 ! R71   R(27,68)                1.0973         -DE/DX =    0.0                 !
 ! R72   R(27,69)                1.0958         -DE/DX =    0.0                 !
 ! R73   R(28,70)                1.0973         -DE/DX =    0.0                 !
 ! R74   R(28,71)                1.0973         -DE/DX =    0.0                 !
 ! R75   R(28,72)                1.096          -DE/DX =    0.0                 !
 ! A1    A(2,1,29)             110.9737         -DE/DX =    0.0                 !
 ! A2    A(2,1,30)             111.8759         -DE/DX =    0.0                 !
 ! A3    A(2,1,31)             111.2112         -DE/DX =    0.0                 !
 ! A4    A(29,1,30)            107.1817         -DE/DX =    0.0                 !
 ! A5    A(29,1,31)            107.5855         -DE/DX =    0.0                 !
 ! A6    A(30,1,31)            107.8052         -DE/DX =    0.0                 !
 ! A7    A(1,2,3)              110.379          -DE/DX =    0.0                 !
 ! A8    A(1,2,17)             110.8046         -DE/DX =    0.0                 !
 ! A9    A(1,2,20)             113.4526         -DE/DX =    0.0                 !
 ! A10   A(3,2,17)             106.9826         -DE/DX =    0.0                 !
 ! A11   A(3,2,20)              99.0898         -DE/DX =    0.0                 !
 ! A12   A(17,2,20)            115.2715         -DE/DX =    0.0                 !
 ! A13   A(2,3,4)              114.4455         -DE/DX =    0.0                 !
 ! A14   A(2,3,18)             104.1032         -DE/DX =    0.0                 !
 ! A15   A(2,3,32)             104.4922         -DE/DX =    0.0                 !
 ! A16   A(4,3,18)             120.9825         -DE/DX =    0.0                 !
 ! A17   A(4,3,32)             104.9923         -DE/DX =    0.0                 !
 ! A18   A(18,3,32)            106.4726         -DE/DX =    0.0                 !
 ! A19   A(3,4,5)              114.9374         -DE/DX =    0.0                 !
 ! A20   A(3,4,10)             123.5955         -DE/DX =    0.0                 !
 ! A21   A(5,4,10)             120.3031         -DE/DX =    0.0                 !
 ! A22   A(4,5,6)              113.4558         -DE/DX =    0.0                 !
 ! A23   A(4,5,16)             112.4614         -DE/DX =    0.0                 !
 ! A24   A(4,5,33)             105.1426         -DE/DX =    0.0                 !
 ! A25   A(6,5,16)             112.1507         -DE/DX =    0.0                 !
 ! A26   A(6,5,33)             106.5959         -DE/DX =    0.0                 !
 ! A27   A(16,5,33)            106.3282         -DE/DX =    0.0                 !
 ! A28   A(5,6,7)              111.7309         -DE/DX =    0.0                 !
 ! A29   A(5,6,8)              110.7944         -DE/DX =    0.0                 !
 ! A30   A(5,6,15)             110.2992         -DE/DX =    0.0                 !
 ! A31   A(7,6,8)              106.3633         -DE/DX =    0.0                 !
 ! A32   A(7,6,15)             109.0479         -DE/DX =    0.0                 !
 ! A33   A(8,6,15)             108.4731         -DE/DX =    0.0                 !
 ! A34   A(6,7,34)             109.8149         -DE/DX =    0.0                 !
 ! A35   A(6,7,35)             111.6128         -DE/DX =    0.0                 !
 ! A36   A(6,7,36)             111.0613         -DE/DX =    0.0                 !
 ! A37   A(34,7,35)            107.357          -DE/DX =    0.0                 !
 ! A38   A(34,7,36)            108.0238         -DE/DX =    0.0                 !
 ! A39   A(35,7,36)            108.8339         -DE/DX =    0.0                 !
 ! A40   A(6,8,9)              120.4596         -DE/DX =    0.0                 !
 ! A41   A(6,8,11)             115.7526         -DE/DX =    0.0                 !
 ! A42   A(9,8,11)             123.7278         -DE/DX =    0.0                 !
 ! A43   A(8,9,10)             121.8647         -DE/DX =    0.0                 !
 ! A44   A(8,9,37)             120.0443         -DE/DX =    0.0                 !
 ! A45   A(10,9,37)            118.0105         -DE/DX =    0.0                 !
 ! A46   A(4,10,9)             121.5278         -DE/DX =    0.0                 !
 ! A47   A(4,10,38)            120.1841         -DE/DX =    0.0                 !
 ! A48   A(9,10,38)            117.9412         -DE/DX =    0.0                 !
 ! A49   A(8,11,12)            111.3332         -DE/DX =    0.0                 !
 ! A50   A(8,11,39)            111.3073         -DE/DX =    0.0                 !
 ! A51   A(8,11,40)            110.6185         -DE/DX =    0.0                 !
 ! A52   A(12,11,39)           110.5413         -DE/DX =    0.0                 !
 ! A53   A(12,11,40)           105.9258         -DE/DX =    0.0                 !
 ! A54   A(39,11,40)           106.8882         -DE/DX =    0.0                 !
 ! A55   A(11,12,13)           104.982          -DE/DX =    0.0                 !
 ! A56   A(11,12,14)           111.5932         -DE/DX =    0.0                 !
 ! A57   A(11,12,41)           110.3495         -DE/DX =    0.0                 !
 ! A58   A(13,12,14)           111.6445         -DE/DX =    0.0                 !
 ! A59   A(13,12,41)           108.3265         -DE/DX =    0.0                 !
 ! A60   A(14,12,41)           109.8127         -DE/DX =    0.0                 !
 ! A61   A(12,13,42)           111.1184         -DE/DX =    0.0                 !
 ! A62   A(12,14,15)           111.4511         -DE/DX =    0.0                 !
 ! A63   A(12,14,43)           109.4053         -DE/DX =    0.0                 !
 ! A64   A(12,14,44)           108.6951         -DE/DX =    0.0                 !
 ! A65   A(15,14,43)           110.8562         -DE/DX =    0.0                 !
 ! A66   A(15,14,44)           109.7346         -DE/DX =    0.0                 !
 ! A67   A(43,14,44)           106.5546         -DE/DX =    0.0                 !
 ! A68   A(6,15,14)            111.7627         -DE/DX =    0.0                 !
 ! A69   A(6,15,45)            109.9473         -DE/DX =    0.0                 !
 ! A70   A(6,15,46)            109.553          -DE/DX =    0.0                 !
 ! A71   A(14,15,45)           110.4157         -DE/DX =    0.0                 !
 ! A72   A(14,15,46)           108.6182         -DE/DX =    0.0                 !
 ! A73   A(45,15,46)           106.3864         -DE/DX =    0.0                 !
 ! A74   A(5,16,17)            114.7412         -DE/DX =    0.0                 !
 ! A75   A(5,16,47)            109.4163         -DE/DX =    0.0                 !
 ! A76   A(5,16,48)            109.1233         -DE/DX =    0.0                 !
 ! A77   A(17,16,47)           107.8646         -DE/DX =    0.0                 !
 ! A78   A(17,16,48)           109.0549         -DE/DX =    0.0                 !
 ! A79   A(47,16,48)           106.3035         -DE/DX =    0.0                 !
 ! A80   A(2,17,16)            110.9655         -DE/DX =    0.0                 !
 ! A81   A(2,17,49)            108.9296         -DE/DX =    0.0                 !
 ! A82   A(2,17,50)            110.9828         -DE/DX =    0.0                 !
 ! A83   A(16,17,49)           110.1085         -DE/DX =    0.0                 !
 ! A84   A(16,17,50)           108.8914         -DE/DX =    0.0                 !
 ! A85   A(49,17,50)           106.8797         -DE/DX =    0.0                 !
 ! A86   A(3,18,19)            104.1536         -DE/DX =    0.0                 !
 ! A87   A(3,18,51)            112.1093         -DE/DX =    0.0                 !
 ! A88   A(3,18,52)            110.5687         -DE/DX =    0.0                 !
 ! A89   A(19,18,51)           112.1595         -DE/DX =    0.0                 !
 ! A90   A(19,18,52)           110.8249         -DE/DX =    0.0                 !
 ! A91   A(51,18,52)           107.0874         -DE/DX =    0.0                 !
 ! A92   A(18,19,20)           106.0168         -DE/DX =    0.0                 !
 ! A93   A(18,19,53)           110.5656         -DE/DX =    0.0                 !
 ! A94   A(18,19,54)           111.4142         -DE/DX =    0.0                 !
 ! A95   A(20,19,53)           111.6996         -DE/DX =    0.0                 !
 ! A96   A(20,19,54)           110.6355         -DE/DX =    0.0                 !
 ! A97   A(53,19,54)           106.5883         -DE/DX =    0.0                 !
 ! A98   A(2,20,19)            103.5908         -DE/DX =    0.0                 !
 ! A99   A(2,20,21)            120.7702         -DE/DX =    0.0                 !
 ! A100  A(2,20,55)            103.6309         -DE/DX =    0.0                 !
 ! A101  A(19,20,21)           118.4401         -DE/DX =    0.0                 !
 ! A102  A(19,20,55)           105.5312         -DE/DX =    0.0                 !
 ! A103  A(21,20,55)           102.9826         -DE/DX =    0.0                 !
 ! A104  A(20,21,22)           120.6126         -DE/DX =    0.0                 !
 ! A105  A(20,21,28)           109.5049         -DE/DX =    0.0                 !
 ! A106  A(20,21,56)           104.6498         -DE/DX =    0.0                 !
 ! A107  A(22,21,28)           110.4722         -DE/DX =    0.0                 !
 ! A108  A(22,21,56)           104.2635         -DE/DX =    0.0                 !
 ! A109  A(28,21,56)           106.1027         -DE/DX =    0.0                 !
 ! A110  A(21,22,23)           119.1338         -DE/DX =    0.0                 !
 ! A111  A(21,22,57)           109.6688         -DE/DX =    0.0                 !
 ! A112  A(21,22,58)           105.5845         -DE/DX =    0.0                 !
 ! A113  A(23,22,57)           108.6953         -DE/DX =    0.0                 !
 ! A114  A(23,22,58)           107.3661         -DE/DX =    0.0                 !
 ! A115  A(57,22,58)           105.5157         -DE/DX =    0.0                 !
 ! A116  A(22,23,24)           111.8245         -DE/DX =    0.0                 !
 ! A117  A(22,23,59)           110.1962         -DE/DX =    0.0                 !
 ! A118  A(22,23,60)           109.9896         -DE/DX =    0.0                 !
 ! A119  A(24,23,59)           108.7725         -DE/DX =    0.0                 !
 ! A120  A(24,23,60)           109.2611         -DE/DX =    0.0                 !
 ! A121  A(59,23,60)           106.6509         -DE/DX =    0.0                 !
 ! A122  A(23,24,25)           115.183          -DE/DX =    0.0                 !
 ! A123  A(23,24,61)           108.4973         -DE/DX =    0.0                 !
 ! A124  A(23,24,62)           109.4046         -DE/DX =    0.0                 !
 ! A125  A(25,24,61)           108.4251         -DE/DX =    0.0                 !
 ! A126  A(25,24,62)           108.7427         -DE/DX =    0.0                 !
 ! A127  A(61,24,62)           106.2129         -DE/DX =    0.0                 !
 ! A128  A(24,25,26)           110.4651         -DE/DX =    0.0                 !
 ! A129  A(24,25,27)           112.4562         -DE/DX =    0.0                 !
 ! A130  A(24,25,63)           107.563          -DE/DX =    0.0                 !
 ! A131  A(26,25,27)           110.3805         -DE/DX =    0.0                 !
 ! A132  A(26,25,63)           107.8289         -DE/DX =    0.0                 !
 ! A133  A(27,25,63)           107.9655         -DE/DX =    0.0                 !
 ! A134  A(25,26,64)           110.6577         -DE/DX =    0.0                 !
 ! A135  A(25,26,65)           111.2688         -DE/DX =    0.0                 !
 ! A136  A(25,26,66)           111.1848         -DE/DX =    0.0                 !
 ! A137  A(64,26,65)           107.8272         -DE/DX =    0.0                 !
 ! A138  A(64,26,66)           107.7678         -DE/DX =    0.0                 !
 ! A139  A(65,26,66)           107.986          -DE/DX =    0.0                 !
 ! A140  A(25,27,67)           110.5229         -DE/DX =    0.0                 !
 ! A141  A(25,27,68)           110.808          -DE/DX =    0.0                 !
 ! A142  A(25,27,69)           112.075          -DE/DX =    0.0                 !
 ! A143  A(67,27,68)           107.7347         -DE/DX =    0.0                 !
 ! A144  A(67,27,69)           107.9397         -DE/DX =    0.0                 !
 ! A145  A(68,27,69)           107.5922         -DE/DX =    0.0                 !
 ! A146  A(21,28,70)           110.8921         -DE/DX =    0.0                 !
 ! A147  A(21,28,71)           110.7573         -DE/DX =    0.0                 !
 ! A148  A(21,28,72)           111.8794         -DE/DX =    0.0                 !
 ! A149  A(70,28,71)           107.8316         -DE/DX =    0.0                 !
 ! A150  A(70,28,72)           107.5805         -DE/DX =    0.0                 !
 ! A151  A(71,28,72)           107.728          -DE/DX =    0.0                 !
 ! D1    D(29,1,2,3)           -42.542          -DE/DX =    0.0                 !
 ! D2    D(29,1,2,17)           75.7824         -DE/DX =    0.0                 !
 ! D3    D(29,1,2,20)         -152.7155         -DE/DX =    0.0                 !
 ! D4    D(30,1,2,3)            77.1163         -DE/DX =    0.0                 !
 ! D5    D(30,1,2,17)         -164.5594         -DE/DX =    0.0                 !
 ! D6    D(30,1,2,20)          -33.0573         -DE/DX =    0.0                 !
 ! D7    D(31,1,2,3)          -162.2679         -DE/DX =    0.0                 !
 ! D8    D(31,1,2,17)          -43.9435         -DE/DX =    0.0                 !
 ! D9    D(31,1,2,20)           87.5585         -DE/DX =    0.0                 !
 ! D10   D(1,2,3,4)             62.114          -DE/DX =    0.0                 !
 ! D11   D(1,2,3,18)           -72.0928         -DE/DX =    0.0                 !
 ! D12   D(1,2,3,32)           176.3816         -DE/DX =    0.0                 !
 ! D13   D(17,2,3,4)           -58.5247         -DE/DX =    0.0                 !
 ! D14   D(17,2,3,18)          167.2685         -DE/DX =    0.0                 !
 ! D15   D(17,2,3,32)           55.7429         -DE/DX =    0.0                 !
 ! D16   D(20,2,3,4)          -178.585          -DE/DX =    0.0                 !
 ! D17   D(20,2,3,18)           47.2082         -DE/DX =    0.0                 !
 ! D18   D(20,2,3,32)          -64.3175         -DE/DX =    0.0                 !
 ! D19   D(1,2,17,16)          -61.1495         -DE/DX =    0.0                 !
 ! D20   D(1,2,17,49)          177.4756         -DE/DX =    0.0                 !
 ! D21   D(1,2,17,50)           60.0694         -DE/DX =    0.0                 !
 ! D22   D(3,2,17,16)           59.2177         -DE/DX =    0.0                 !
 ! D23   D(3,2,17,49)          -62.1571         -DE/DX =    0.0                 !
 ! D24   D(3,2,17,50)         -179.5634         -DE/DX =    0.0                 !
 ! D25   D(20,2,17,16)         168.295          -DE/DX =    0.0                 !
 ! D26   D(20,2,17,49)          46.9202         -DE/DX =    0.0                 !
 ! D27   D(20,2,17,50)         -70.4861         -DE/DX =    0.0                 !
 ! D28   D(1,2,20,19)           74.0299         -DE/DX =    0.0                 !
 ! D29   D(1,2,20,21)          -61.5459         -DE/DX =    0.0                 !
 ! D30   D(1,2,20,55)         -175.9661         -DE/DX =    0.0                 !
 ! D31   D(3,2,20,19)          -42.9593         -DE/DX =    0.0                 !
 ! D32   D(3,2,20,21)         -178.5351         -DE/DX =    0.0                 !
 ! D33   D(3,2,20,55)           67.0447         -DE/DX =    0.0                 !
 ! D34   D(17,2,20,19)        -156.7021         -DE/DX =    0.0                 !
 ! D35   D(17,2,20,21)          67.722          -DE/DX =    0.0                 !
 ! D36   D(17,2,20,55)         -46.6982         -DE/DX =    0.0                 !
 ! D37   D(2,3,4,5)             50.237          -DE/DX =    0.0                 !
 ! D38   D(2,3,4,10)          -142.0977         -DE/DX =    0.0                 !
 ! D39   D(18,3,4,5)           176.0511         -DE/DX =    0.0                 !
 ! D40   D(18,3,4,10)          -16.2836         -DE/DX =    0.0                 !
 ! D41   D(32,3,4,5)           -63.7367         -DE/DX =    0.0                 !
 ! D42   D(32,3,4,10)          103.9286         -DE/DX =    0.0                 !
 ! D43   D(2,3,18,19)          -32.9201         -DE/DX =    0.0                 !
 ! D44   D(2,3,18,51)         -154.4077         -DE/DX =    0.0                 !
 ! D45   D(2,3,18,52)           86.1734         -DE/DX =    0.0                 !
 ! D46   D(4,3,18,19)         -163.3528         -DE/DX =    0.0                 !
 ! D47   D(4,3,18,51)           75.1596         -DE/DX =    0.0                 !
 ! D48   D(4,3,18,52)          -44.2593         -DE/DX =    0.0                 !
 ! D49   D(32,3,18,19)          77.1617         -DE/DX =    0.0                 !
 ! D50   D(32,3,18,51)         -44.3259         -DE/DX =    0.0                 !
 ! D51   D(32,3,18,52)        -163.7448         -DE/DX =    0.0                 !
 ! D52   D(3,4,5,6)           -169.0753         -DE/DX =    0.0                 !
 ! D53   D(3,4,5,16)           -40.457          -DE/DX =    0.0                 !
 ! D54   D(3,4,5,33)            74.8229         -DE/DX =    0.0                 !
 ! D55   D(10,4,5,6)            22.8186         -DE/DX =    0.0                 !
 ! D56   D(10,4,5,16)          151.4368         -DE/DX =    0.0                 !
 ! D57   D(10,4,5,33)          -93.2832         -DE/DX =    0.0                 !
 ! D58   D(3,4,10,9)          -164.727          -DE/DX =    0.0                 !
 ! D59   D(3,4,10,38)            8.3704         -DE/DX =    0.0                 !
 ! D60   D(5,4,10,9)             2.3077         -DE/DX =    0.0                 !
 ! D61   D(5,4,10,38)          175.4051         -DE/DX =    0.0                 !
 ! D62   D(4,5,6,7)             80.5576         -DE/DX =    0.0                 !
 ! D63   D(4,5,6,8)            -37.852          -DE/DX =    0.0                 !
 ! D64   D(4,5,6,15)          -157.9744         -DE/DX =    0.0                 !
 ! D65   D(16,5,6,7)           -48.2197         -DE/DX =    0.0                 !
 ! D66   D(16,5,6,8)          -166.6294         -DE/DX =    0.0                 !
 ! D67   D(16,5,6,15)           73.2482         -DE/DX =    0.0                 !
 ! D68   D(33,5,6,7)          -164.2001         -DE/DX =    0.0                 !
 ! D69   D(33,5,6,8)            77.3902         -DE/DX =    0.0                 !
 ! D70   D(33,5,6,15)          -42.7322         -DE/DX =    0.0                 !
 ! D71   D(4,5,16,17)           43.0352         -DE/DX =    0.0                 !
 ! D72   D(4,5,16,47)          -78.3353         -DE/DX =    0.0                 !
 ! D73   D(4,5,16,48)          165.7358         -DE/DX =    0.0                 !
 ! D74   D(6,5,16,17)          172.3321         -DE/DX =    0.0                 !
 ! D75   D(6,5,16,47)           50.9616         -DE/DX =    0.0                 !
 ! D76   D(6,5,16,48)          -64.9673         -DE/DX =    0.0                 !
 ! D77   D(33,5,16,17)         -71.5257         -DE/DX =    0.0                 !
 ! D78   D(33,5,16,47)         167.1037         -DE/DX =    0.0                 !
 ! D79   D(33,5,16,48)          51.1749         -DE/DX =    0.0                 !
 ! D80   D(5,6,7,34)          -169.6832         -DE/DX =    0.0                 !
 ! D81   D(5,6,7,35)            71.3809         -DE/DX =    0.0                 !
 ! D82   D(5,6,7,36)           -50.2649         -DE/DX =    0.0                 !
 ! D83   D(8,6,7,34)           -48.6632         -DE/DX =    0.0                 !
 ! D84   D(8,6,7,35)          -167.5991         -DE/DX =    0.0                 !
 ! D85   D(8,6,7,36)            70.7552         -DE/DX =    0.0                 !
 ! D86   D(15,6,7,34)           68.1281         -DE/DX =    0.0                 !
 ! D87   D(15,6,7,35)          -50.8078         -DE/DX =    0.0                 !
 ! D88   D(15,6,7,36)         -172.4535         -DE/DX =    0.0                 !
 ! D89   D(5,6,8,9)             32.3077         -DE/DX =    0.0                 !
 ! D90   D(5,6,8,11)          -150.4064         -DE/DX =    0.0                 !
 ! D91   D(7,6,8,9)            -89.3113         -DE/DX =    0.0                 !
 ! D92   D(7,6,8,11)            87.9746         -DE/DX =    0.0                 !
 ! D93   D(15,6,8,9)           153.514          -DE/DX =    0.0                 !
 ! D94   D(15,6,8,11)          -29.2001         -DE/DX =    0.0                 !
 ! D95   D(5,6,15,14)           89.1407         -DE/DX =    0.0                 !
 ! D96   D(5,6,15,45)          -33.8469         -DE/DX =    0.0                 !
 ! D97   D(5,6,15,46)         -150.4228         -DE/DX =    0.0                 !
 ! D98   D(7,6,15,14)         -147.8111         -DE/DX =    0.0                 !
 ! D99   D(7,6,15,45)           89.2013         -DE/DX =    0.0                 !
 ! D100  D(7,6,15,46)          -27.3746         -DE/DX =    0.0                 !
 ! D101  D(8,6,15,14)          -32.3701         -DE/DX =    0.0                 !
 ! D102  D(8,6,15,45)         -155.3577         -DE/DX =    0.0                 !
 ! D103  D(8,6,15,46)           88.0664         -DE/DX =    0.0                 !
 ! D104  D(6,8,9,10)            -8.4693         -DE/DX =    0.0                 !
 ! D105  D(6,8,9,37)           174.8587         -DE/DX =    0.0                 !
 ! D106  D(11,8,9,10)          174.4701         -DE/DX =    0.0                 !
 ! D107  D(11,8,9,37)           -2.2018         -DE/DX =    0.0                 !
 ! D108  D(6,8,11,12)           62.4244         -DE/DX =    0.0                 !
 ! D109  D(6,8,11,39)         -173.7505         -DE/DX =    0.0                 !
 ! D110  D(6,8,11,40)          -55.0711         -DE/DX =    0.0                 !
 ! D111  D(9,8,11,12)         -120.3886         -DE/DX =    0.0                 !
 ! D112  D(9,8,11,39)            3.4365         -DE/DX =    0.0                 !
 ! D113  D(9,8,11,40)          122.1158         -DE/DX =    0.0                 !
 ! D114  D(8,9,10,4)           -10.8724         -DE/DX =    0.0                 !
 ! D115  D(8,9,10,38)          175.8809         -DE/DX =    0.0                 !
 ! D116  D(37,9,10,4)          165.8646         -DE/DX =    0.0                 !
 ! D117  D(37,9,10,38)          -7.3821         -DE/DX =    0.0                 !
 ! D118  D(8,11,12,13)        -148.8784         -DE/DX =    0.0                 !
 ! D119  D(8,11,12,14)         -27.7764         -DE/DX =    0.0                 !
 ! D120  D(8,11,12,41)          94.6075         -DE/DX =    0.0                 !
 ! D121  D(39,11,12,13)         86.863          -DE/DX =    0.0                 !
 ! D122  D(39,11,12,14)       -152.035          -DE/DX =    0.0                 !
 ! D123  D(39,11,12,41)        -29.6511         -DE/DX =    0.0                 !
 ! D124  D(40,11,12,13)        -28.575          -DE/DX =    0.0                 !
 ! D125  D(40,11,12,14)         92.5271         -DE/DX =    0.0                 !
 ! D126  D(40,11,12,41)       -145.089          -DE/DX =    0.0                 !
 ! D127  D(11,12,13,42)       -170.9581         -DE/DX =    0.0                 !
 ! D128  D(14,12,13,42)         67.9736         -DE/DX =    0.0                 !
 ! D129  D(41,12,13,42)        -53.0628         -DE/DX =    0.0                 !
 ! D130  D(11,12,14,15)        -31.8216         -DE/DX =    0.0                 !
 ! D131  D(11,12,14,43)       -154.7761         -DE/DX =    0.0                 !
 ! D132  D(11,12,14,44)         89.2402         -DE/DX =    0.0                 !
 ! D133  D(13,12,14,15)         85.3191         -DE/DX =    0.0                 !
 ! D134  D(13,12,14,43)        -37.6353         -DE/DX =    0.0                 !
 ! D135  D(13,12,14,44)       -153.619          -DE/DX =    0.0                 !
 ! D136  D(41,12,14,15)       -154.5131         -DE/DX =    0.0                 !
 ! D137  D(41,12,14,43)         82.5325         -DE/DX =    0.0                 !
 ! D138  D(41,12,14,44)        -33.4513         -DE/DX =    0.0                 !
 ! D139  D(12,14,15,6)          65.306          -DE/DX =    0.0                 !
 ! D140  D(12,14,15,45)       -171.973          -DE/DX =    0.0                 !
 ! D141  D(12,14,15,46)        -55.675          -DE/DX =    0.0                 !
 ! D142  D(43,14,15,6)        -172.5732         -DE/DX =    0.0                 !
 ! D143  D(43,14,15,45)        -49.8522         -DE/DX =    0.0                 !
 ! D144  D(43,14,15,46)         66.4458         -DE/DX =    0.0                 !
 ! D145  D(44,14,15,6)         -55.147          -DE/DX =    0.0                 !
 ! D146  D(44,14,15,45)         67.574          -DE/DX =    0.0                 !
 ! D147  D(44,14,15,46)       -176.128          -DE/DX =    0.0                 !
 ! D148  D(5,16,17,2)          -54.4467         -DE/DX =    0.0                 !
 ! D149  D(5,16,17,49)          66.2334         -DE/DX =    0.0                 !
 ! D150  D(5,16,17,50)        -176.8878         -DE/DX =    0.0                 !
 ! D151  D(47,16,17,2)          67.7683         -DE/DX =    0.0                 !
 ! D152  D(47,16,17,49)       -171.5516         -DE/DX =    0.0                 !
 ! D153  D(47,16,17,50)        -54.6728         -DE/DX =    0.0                 !
 ! D154  D(48,16,17,2)        -177.1841         -DE/DX =    0.0                 !
 ! D155  D(48,16,17,49)        -56.5041         -DE/DX =    0.0                 !
 ! D156  D(48,16,17,50)         60.3747         -DE/DX =    0.0                 !
 ! D157  D(3,18,19,20)           5.3569         -DE/DX =    0.0                 !
 ! D158  D(3,18,19,53)         126.5925         -DE/DX =    0.0                 !
 ! D159  D(3,18,19,54)        -115.069          -DE/DX =    0.0                 !
 ! D160  D(51,18,19,20)        126.8111         -DE/DX =    0.0                 !
 ! D161  D(51,18,19,53)       -111.9533         -DE/DX =    0.0                 !
 ! D162  D(51,18,19,54)          6.3852         -DE/DX =    0.0                 !
 ! D163  D(52,18,19,20)       -113.5621         -DE/DX =    0.0                 !
 ! D164  D(52,18,19,53)          7.6735         -DE/DX =    0.0                 !
 ! D165  D(52,18,19,54)        126.012          -DE/DX =    0.0                 !
 ! D166  D(18,19,20,2)          23.9067         -DE/DX =    0.0                 !
 ! D167  D(18,19,20,21)        160.7518         -DE/DX =    0.0                 !
 ! D168  D(18,19,20,55)        -84.6855         -DE/DX =    0.0                 !
 ! D169  D(53,19,20,2)         -96.5956         -DE/DX =    0.0                 !
 ! D170  D(53,19,20,21)         40.2495         -DE/DX =    0.0                 !
 ! D171  D(53,19,20,55)        154.8122         -DE/DX =    0.0                 !
 ! D172  D(54,19,20,2)         144.8371         -DE/DX =    0.0                 !
 ! D173  D(54,19,20,21)        -78.3177         -DE/DX =    0.0                 !
 ! D174  D(54,19,20,55)         36.245          -DE/DX =    0.0                 !
 ! D175  D(2,20,21,22)          61.3366         -DE/DX =    0.0                 !
 ! D176  D(2,20,21,28)        -168.8178         -DE/DX =    0.0                 !
 ! D177  D(2,20,21,56)         -55.444          -DE/DX =    0.0                 !
 ! D178  D(19,20,21,22)        -67.9722         -DE/DX =    0.0                 !
 ! D179  D(19,20,21,28)         61.8734         -DE/DX =    0.0                 !
 ! D180  D(19,20,21,56)        175.2472         -DE/DX =    0.0                 !
 ! D181  D(55,20,21,22)        176.0919         -DE/DX =    0.0                 !
 ! D182  D(55,20,21,28)        -54.0625         -DE/DX =    0.0                 !
 ! D183  D(55,20,21,56)         59.3113         -DE/DX =    0.0                 !
 ! D184  D(20,21,22,23)         67.8085         -DE/DX =    0.0                 !
 ! D185  D(20,21,22,57)        -58.2719         -DE/DX =    0.0                 !
 ! D186  D(20,21,22,58)       -171.5139         -DE/DX =    0.0                 !
 ! D187  D(28,21,22,23)        -61.6123         -DE/DX =    0.0                 !
 ! D188  D(28,21,22,57)        172.3073         -DE/DX =    0.0                 !
 ! D189  D(28,21,22,58)         59.0653         -DE/DX =    0.0                 !
 ! D190  D(56,21,22,23)       -175.2144         -DE/DX =    0.0                 !
 ! D191  D(56,21,22,57)         58.7051         -DE/DX =    0.0                 !
 ! D192  D(56,21,22,58)        -54.5368         -DE/DX =    0.0                 !
 ! D193  D(20,21,28,70)         54.2891         -DE/DX =    0.0                 !
 ! D194  D(20,21,28,71)        173.9715         -DE/DX =    0.0                 !
 ! D195  D(20,21,28,72)        -65.8223         -DE/DX =    0.0                 !
 ! D196  D(22,21,28,70)       -170.566          -DE/DX =    0.0                 !
 ! D197  D(22,21,28,71)        -50.8835         -DE/DX =    0.0                 !
 ! D198  D(22,21,28,72)         69.3227         -DE/DX =    0.0                 !
 ! D199  D(56,21,28,70)        -58.1389         -DE/DX =    0.0                 !
 ! D200  D(56,21,28,71)         61.5435         -DE/DX =    0.0                 !
 ! D201  D(56,21,28,72)       -178.2502         -DE/DX =    0.0                 !
 ! D202  D(21,22,23,24)        168.3314         -DE/DX =    0.0                 !
 ! D203  D(21,22,23,59)         47.2216         -DE/DX =    0.0                 !
 ! D204  D(21,22,23,60)        -70.0814         -DE/DX =    0.0                 !
 ! D205  D(57,22,23,24)        -65.1273         -DE/DX =    0.0                 !
 ! D206  D(57,22,23,59)        173.7629         -DE/DX =    0.0                 !
 ! D207  D(57,22,23,60)         56.46           -DE/DX =    0.0                 !
 ! D208  D(58,22,23,24)         48.5582         -DE/DX =    0.0                 !
 ! D209  D(58,22,23,59)        -72.5516         -DE/DX =    0.0                 !
 ! D210  D(58,22,23,60)        170.1455         -DE/DX =    0.0                 !
 ! D211  D(22,23,24,25)       -177.1005         -DE/DX =    0.0                 !
 ! D212  D(22,23,24,61)        -55.3926         -DE/DX =    0.0                 !
 ! D213  D(22,23,24,62)         60.0743         -DE/DX =    0.0                 !
 ! D214  D(59,23,24,25)        -55.1693         -DE/DX =    0.0                 !
 ! D215  D(59,23,24,61)         66.5385         -DE/DX =    0.0                 !
 ! D216  D(59,23,24,62)       -177.9945         -DE/DX =    0.0                 !
 ! D217  D(60,23,24,25)         60.8932         -DE/DX =    0.0                 !
 ! D218  D(60,23,24,61)       -177.3989         -DE/DX =    0.0                 !
 ! D219  D(60,23,24,62)        -61.932          -DE/DX =    0.0                 !
 ! D220  D(23,24,25,26)        171.2299         -DE/DX =    0.0                 !
 ! D221  D(23,24,25,27)        -64.9588         -DE/DX =    0.0                 !
 ! D222  D(23,24,25,63)         53.7848         -DE/DX =    0.0                 !
 ! D223  D(61,24,25,26)         49.483          -DE/DX =    0.0                 !
 ! D224  D(61,24,25,27)        173.2944         -DE/DX =    0.0                 !
 ! D225  D(61,24,25,63)        -67.9621         -DE/DX =    0.0                 !
 ! D226  D(62,24,25,26)        -65.5925         -DE/DX =    0.0                 !
 ! D227  D(62,24,25,27)         58.2188         -DE/DX =    0.0                 !
 ! D228  D(62,24,25,63)        176.9623         -DE/DX =    0.0                 !
 ! D229  D(24,25,26,64)         62.4118         -DE/DX =    0.0                 !
 ! D230  D(24,25,26,65)        -57.4465         -DE/DX =    0.0                 !
 ! D231  D(24,25,26,66)       -177.8598         -DE/DX =    0.0                 !
 ! D232  D(27,25,26,64)        -62.5885         -DE/DX =    0.0                 !
 ! D233  D(27,25,26,65)        177.5531         -DE/DX =    0.0                 !
 ! D234  D(27,25,26,66)         57.1398         -DE/DX =    0.0                 !
 ! D235  D(63,25,26,64)        179.693          -DE/DX =    0.0                 !
 ! D236  D(63,25,26,65)         59.8347         -DE/DX =    0.0                 !
 ! D237  D(63,25,26,66)        -60.5786         -DE/DX =    0.0                 !
 ! D238  D(24,25,27,67)        -59.8711         -DE/DX =    0.0                 !
 ! D239  D(24,25,27,68)       -179.2252         -DE/DX =    0.0                 !
 ! D240  D(24,25,27,69)         60.5745         -DE/DX =    0.0                 !
 ! D241  D(26,25,27,67)         63.9872         -DE/DX =    0.0                 !
 ! D242  D(26,25,27,68)        -55.3669         -DE/DX =    0.0                 !
 ! D243  D(26,25,27,69)       -175.5671         -DE/DX =    0.0                 !
 ! D244  D(63,25,27,67)       -178.3784         -DE/DX =    0.0                 !
 ! D245  D(63,25,27,68)         62.2675         -DE/DX =    0.0                 !
 ! D246  D(63,25,27,69)        -57.9327         -DE/DX =    0.0                 !
 --------------------------------------------------------------------------------
 Largest change from initial coordinates is atom   64       0.124 Angstoms.
 GradGradGradGradGradGradGradGradGradGradGradGradGradGradGradGradGradGrad

 Leave Link  103 at Mon Jul 28 19:38:05 2025, MaxMem=  1073741824 cpu:               1.1 elap:               0.2
 (Enter /app/gaussian/g16/l202.exe)
 Stoichiometry    C27H44O
 Framework group  C1[X(C27H44O)]
 Deg. of freedom   210
 Full point group                 C1      NOp   1
 RotChk:  IX=0 Diff= 7.96D-15
 Largest Abelian subgroup         C1      NOp   1
 Largest concise Abelian subgroup C1      NOp   1
                         Standard orientation:                         
 ---------------------------------------------------------------------
 Center     Atomic      Atomic             Coordinates (Angstroms)
 Number     Number       Type             X           Y           Z
 ---------------------------------------------------------------------
      1          6           0       -1.085021   -0.475773   -0.658593
      2          6           0       -0.646146    0.891896   -0.074896
      3          6           0        0.247067    0.682271    1.190206
      4          6           0        1.534433   -0.054891    0.929132
      5          6           0        2.369146    0.492194   -0.241235
      6          6           0        3.560447   -0.455473   -0.660549
      7          6           0        3.074835   -1.625652   -1.569401
      8          6           0        4.202792   -1.105755    0.577165
      9          6           0        3.454560   -1.399029    1.662392
     10          6           0        2.068139   -0.956005    1.785769
     11          6           0        5.668825   -1.436261    0.456986
     12          6           0        6.516226   -0.162821    0.244098
     13          8           0        7.662974   -0.600225   -0.577224
     14          6           0        5.705744    0.948191   -0.455806
     15          6           0        4.662382    0.360137   -1.421541
     16          6           0        1.487136    0.904049   -1.461580
     17          6           0        0.198382    1.677735   -1.097066
     18          6           0       -0.741239    0.196904    2.272236
     19          6           0       -2.079596    0.934214    1.927036
     20          6           0       -1.819629    1.695040    0.581096
     21          6           0       -3.047570    2.146544   -0.265259
     22          6           0       -3.961550    1.093884   -0.961839
     23          6           0       -4.832908    0.162272   -0.092232
     24          6           0       -5.872617   -0.603404   -0.936209
     25          6           0       -6.836219   -1.509241   -0.131385
     26          6           0       -7.958610   -2.047103   -1.042978
     27          6           0       -6.104875   -2.675298    0.565402
     28          6           0       -3.900340    3.147038    0.553648
     29          1           0       -0.251808   -1.186634   -0.660773
     30          1           0       -1.893374   -0.927145   -0.075873
     31          1           0       -1.434340   -0.372083   -1.691738
     32          1           0        0.556914    1.705447    1.483687
     33          1           0        2.827712    1.427170    0.141930
     34          1           0        3.878940   -2.360220   -1.690550
     35          1           0        2.801057   -1.272720   -2.569891
     36          1           0        2.213099   -2.136443   -1.126562
     37          1           0        3.896809   -1.934249    2.500905
     38          1           0        1.503771   -1.285092    2.654217
     39          1           0        6.024154   -1.992600    1.330512
     40          1           0        5.851971   -2.071269   -0.422541
     41          1           0        6.900323    0.205675    1.205360
     42          1           0        8.335507    0.106740   -0.648541
     43          1           0        6.392625    1.622646   -0.985412
     44          1           0        5.202050    1.553268    0.311208
     45          1           0        4.196411    1.157158   -2.012654
     46          1           0        5.176718   -0.295405   -2.136460
     47          1           0        1.194927    0.008436   -2.017880
     48          1           0        2.087320    1.512038   -2.149941
     49          1           0        0.454500    2.659781   -0.669225
     50          1           0       -0.373880    1.869361   -2.016304
     51          1           0       -0.390951    0.428433    3.284512
     52          1           0       -0.869838   -0.891388    2.216603
     53          1           0       -2.899671    0.217861    1.834369
     54          1           0       -2.365370    1.636314    2.718650
     55          1           0       -1.350620    2.653098    0.868670
     56          1           0       -2.614155    2.724877   -1.099499
     57          1           0       -3.363153    0.479623   -1.643767
     58          1           0       -4.642085    1.673317   -1.607148
     59          1           0       -5.360895    0.744682    0.676578
     60          1           0       -4.198488   -0.556238    0.438716
     61          1           0       -6.472133    0.128271   -1.499997
     62          1           0       -5.352166   -1.219481   -1.687928
     63          1           0       -7.304536   -0.886343    0.649263
     64          1           0       -7.541011   -2.672431   -1.844229
     65          1           0       -8.516845   -1.227549   -1.512835
     66          1           0       -8.670172   -2.660367   -0.476051
     67          1           0       -5.596954   -3.309030   -0.175120
     68          1           0       -6.813730   -3.306776    1.115706
     69          1           0       -5.352783   -2.321680    1.279578
     70          1           0       -3.287082    3.984857    0.908773
     71          1           0       -4.710941    3.560283   -0.059802
     72          1           0       -4.354384    2.673628    1.431686
 ---------------------------------------------------------------------
 Rotational constants (GHZ):           0.4106592           0.0649259           0.0627662
 Leave Link  202 at Mon Jul 28 19:38:05 2025, MaxMem=  1073741824 cpu:               0.1 elap:               0.0
 (Enter /app/gaussian/g16/l601.exe)
 Copying SCF densities to generalized density rwf, IOpCl= 0 IROHF=0.

 **********************************************************************

            Population analysis using the SCF Density.

 **********************************************************************

 Orbital symmetries:
       Occupied  (A) (A) (A) (A) (A) (A) (A) (A) (A) (A) (A) (A)
                 (A) (A) (A) (A) (A) (A) (A) (A) (A) (A) (A) (A)
                 (A) (A) (A) (A) (A) (A) (A) (A) (A) (A) (A) (A)
                 (A) (A) (A) (A) (A) (A) (A) (A) (A) (A) (A) (A)
                 (A) (A) (A) (A) (A) (A) (A) (A) (A) (A) (A) (A)
                 (A) (A) (A) (A) (A) (A) (A) (A) (A) (A) (A) (A)
                 (A) (A) (A) (A) (A) (A) (A) (A) (A) (A) (A) (A)
                 (A) (A) (A) (A) (A) (A) (A) (A) (A) (A) (A) (A)
                 (A) (A) (A) (A) (A) (A) (A) (A) (A) (A) (A)
       Virtual   (A) (A) (A) (A) (A) (A) (A) (A) (A) (A) (A) (A)
                 (A) (A) (A) (A) (A) (A) (A) (A) (A) (A) (A) (A)
                 (A) (A) (A) (A) (A) (A) (A) (A) (A) (A) (A) (A)
                 (A) (A) (A) (A) (A) (A) (A) (A) (A) (A) (A) (A)
                 (A) (A) (A) (A) (A) (A) (A) (A) (A) (A) (A) (A)
                 (A) (A) (A) (A) (A) (A) (A) (A) (A) (A) (A) (A)
                 (A) (A) (A) (A) (A) (A) (A) (A) (A) (A) (A) (A)
                 (A) (A) (A) (A) (A) (A) (A) (A) (A) (A) (A) (A)
                 (A) (A) (A) (A) (A) (A) (A) (A) (A) (A) (A) (A)
                 (A) (A) (A) (A) (A) (A) (A) (A) (A) (A) (A) (A)
                 (A) (A) (A) (A) (A) (A) (A) (A) (A) (A) (A) (A)
                 (A) (A) (A) (A) (A) (A) (A) (A) (A) (A) (A) (A)
                 (A) (A) (A) (A) (A) (A) (A) (A) (A) (A) (A) (A)
                 (A) (A) (A) (A) (A) (A) (A) (A) (A) (A) (A) (A)
                 (A) (A) (A) (A) (A) (A) (A) (A) (A) (A) (A) (A)
                 (A) (A) (A) (A) (A) (A) (A) (A) (A) (A) (A) (A)
                 (A) (A) (A) (A) (A) (A) (A) (A) (A) (A) (A) (A)
                 (A) (A) (A) (A) (A) (A) (A) (A) (A) (A) (A) (A)
                 (A) (A) (A) (A) (A) (A) (A) (A) (A) (A) (A) (A)
                 (A) (A) (A) (A) (A) (A) (A) (A) (A) (A) (A) (A)
                 (A) (A) (A) (A) (A) (A) (A) (A) (A) (A) (A) (A)
                 (A) (A) (A) (A) (A) (A) (A) (A) (A) (A) (A) (A)
                 (A) (A) (A) (A) (A) (A) (A) (A) (A) (A) (A) (A)
                 (A) (A) (A) (A) (A) (A) (A) (A) (A) (A) (A) (A)
                 (A) (A) (A) (A) (A) (A) (A) (A) (A) (A) (A) (A)
                 (A) (A) (A) (A) (A) (A) (A) (A) (A) (A) (A) (A)
                 (A) (A) (A) (A) (A) (A) (A) (A) (A) (A) (A) (A)
                 (A) (A) (A) (A) (A) (A) (A) (A) (A) (A) (A) (A)
                 (A) (A) (A) (A) (A) (A)
 The electronic state is 1-A.
 Alpha  occ. eigenvalues --  -19.15035 -10.24298 -10.20307 -10.19424 -10.19178
 Alpha  occ. eigenvalues --  -10.18902 -10.18859 -10.18829 -10.18790 -10.18545
 Alpha  occ. eigenvalues --  -10.18436 -10.18299 -10.18161 -10.17999 -10.17927
 Alpha  occ. eigenvalues --  -10.17865 -10.17809 -10.17665 -10.17654 -10.17526
 Alpha  occ. eigenvalues --  -10.17522 -10.17504 -10.17482 -10.16950 -10.16922
 Alpha  occ. eigenvalues --  -10.16917 -10.16907 -10.16657  -1.02007  -0.87309
 Alpha  occ. eigenvalues --   -0.85369  -0.81911  -0.80852  -0.79412  -0.78951
 Alpha  occ. eigenvalues --   -0.76550  -0.75765  -0.74456  -0.72792  -0.71156
 Alpha  occ. eigenvalues --   -0.68663  -0.68517  -0.68043  -0.67571  -0.67428
 Alpha  occ. eigenvalues --   -0.64346  -0.62271  -0.61233  -0.60018  -0.58330
 Alpha  occ. eigenvalues --   -0.56762  -0.56243  -0.55966  -0.52527  -0.52459
 Alpha  occ. eigenvalues --   -0.51591  -0.49161  -0.48641  -0.48097  -0.47352
 Alpha  occ. eigenvalues --   -0.46490  -0.45991  -0.45678  -0.45400  -0.44971
 Alpha  occ. eigenvalues --   -0.43880  -0.43671  -0.43052  -0.42509  -0.42021
 Alpha  occ. eigenvalues --   -0.41362  -0.41134  -0.40189  -0.39676  -0.39474
 Alpha  occ. eigenvalues --   -0.39311  -0.39029  -0.38534  -0.38270  -0.38088
 Alpha  occ. eigenvalues --   -0.37625  -0.36923  -0.36865  -0.36513  -0.36405
 Alpha  occ. eigenvalues --   -0.36179  -0.35829  -0.35380  -0.34756  -0.34536
 Alpha  occ. eigenvalues --   -0.33737  -0.32986  -0.32570  -0.32347  -0.32215
 Alpha  occ. eigenvalues --   -0.31965  -0.31900  -0.31792  -0.31392  -0.30358
 Alpha  occ. eigenvalues --   -0.29816  -0.29616  -0.29255  -0.28969  -0.27913
 Alpha  occ. eigenvalues --   -0.27340  -0.20076
 Alpha virt. eigenvalues --   -0.02834  -0.00590  -0.00190   0.00335   0.00732
 Alpha virt. eigenvalues --    0.00896   0.01515   0.01649   0.01972   0.02475
 Alpha virt. eigenvalues --    0.02961   0.03051   0.03347   0.03862   0.04130
 Alpha virt. eigenvalues --    0.04236   0.04498   0.04861   0.05267   0.05719
 Alpha virt. eigenvalues --    0.05845   0.06224   0.06457   0.06473   0.06934
 Alpha virt. eigenvalues --    0.07307   0.07380   0.07816   0.07855   0.08064
 Alpha virt. eigenvalues --    0.08662   0.08825   0.08908   0.09090   0.09396
 Alpha virt. eigenvalues --    0.09871   0.09902   0.10371   0.10499   0.11291
 Alpha virt. eigenvalues --    0.11391   0.11545   0.11577   0.11770   0.12226
 Alpha virt. eigenvalues --    0.12341   0.12409   0.12809   0.13207   0.13392
 Alpha virt. eigenvalues --    0.13472   0.14028   0.14239   0.14481   0.14745
 Alpha virt. eigenvalues --    0.14986   0.15237   0.15498   0.15559   0.15876
 Alpha virt. eigenvalues --    0.16167   0.16222   0.16692   0.16994   0.17180
 Alpha virt. eigenvalues --    0.17197   0.17633   0.17835   0.17884   0.18041
 Alpha virt. eigenvalues --    0.18372   0.18750   0.19079   0.19200   0.19286
 Alpha virt. eigenvalues --    0.19387   0.19515   0.19706   0.19817   0.20103
 Alpha virt. eigenvalues --    0.20182   0.20626   0.20734   0.20902   0.21066
 Alpha virt. eigenvalues --    0.21127   0.21423   0.21607   0.21871   0.22146
 Alpha virt. eigenvalues --    0.22202   0.22212   0.22660   0.22731   0.22974
 Alpha virt. eigenvalues --    0.23301   0.23343   0.23514   0.23912   0.23978
 Alpha virt. eigenvalues --    0.24219   0.24605   0.24917   0.24971   0.25125
 Alpha virt. eigenvalues --    0.25241   0.25387   0.25440   0.25590   0.26027
 Alpha virt. eigenvalues --    0.26180   0.26428   0.26471   0.26802   0.26970
 Alpha virt. eigenvalues --    0.27255   0.27468   0.27623   0.27926   0.28262
 Alpha virt. eigenvalues --    0.28408   0.28607   0.28894   0.28971   0.29436
 Alpha virt. eigenvalues --    0.29656   0.29930   0.30331   0.30700   0.30864
 Alpha virt. eigenvalues --    0.31073   0.31201   0.31330   0.31586   0.32070
 Alpha virt. eigenvalues --    0.32247   0.32353   0.32615   0.32888   0.33309
 Alpha virt. eigenvalues --    0.33566   0.33989   0.34162   0.34455   0.34701
 Alpha virt. eigenvalues --    0.35051   0.35263   0.35433   0.35979   0.36213
 Alpha virt. eigenvalues --    0.36581   0.36954   0.37230   0.37691   0.37889
 Alpha virt. eigenvalues --    0.38179   0.38395   0.38834   0.38960   0.39277
 Alpha virt. eigenvalues --    0.39964   0.40226   0.40509   0.40646   0.41389
 Alpha virt. eigenvalues --    0.41844   0.42140   0.42590   0.42928   0.43351
 Alpha virt. eigenvalues --    0.43578   0.44455   0.45144   0.45489   0.45895
 Alpha virt. eigenvalues --    0.46518   0.46989   0.47852   0.48218   0.48677
 Alpha virt. eigenvalues --    0.49036   0.51870   0.52301   0.53351   0.55130
 Alpha virt. eigenvalues --    0.58874   0.64244   0.66776   0.68227   0.68560
 Alpha virt. eigenvalues --    0.68998   0.69695   0.70094   0.70720   0.71195
 Alpha virt. eigenvalues --    0.71441   0.71668   0.72507   0.72906   0.72936
 Alpha virt. eigenvalues --    0.73111   0.74250   0.74610   0.74930   0.75414
 Alpha virt. eigenvalues --    0.75735   0.76182   0.76679   0.76979   0.77313
 Alpha virt. eigenvalues --    0.77422   0.78021   0.78924   0.79515   0.79776
 Alpha virt. eigenvalues --    0.80187   0.81159   0.81782   0.82523   0.82961
 Alpha virt. eigenvalues --    0.83338   0.83919   0.84022   0.84737   0.85332
 Alpha virt. eigenvalues --    0.85865   0.86121   0.86478   0.86742   0.87080
 Alpha virt. eigenvalues --    0.87557   0.88626   0.89013   0.89597   0.90378
 Alpha virt. eigenvalues --    0.91522   0.92113   0.93175   0.93865   0.94218
 Alpha virt. eigenvalues --    0.94385   0.94819   0.96600   0.97093   0.97473
 Alpha virt. eigenvalues --    0.97908   0.98568   0.99468   0.99930   1.00200
 Alpha virt. eigenvalues --    1.01547   1.03168   1.03727   1.04056   1.04188
 Alpha virt. eigenvalues --    1.04710   1.05623   1.06251   1.07226   1.07688
 Alpha virt. eigenvalues --    1.08313   1.08715   1.09245   1.09544   1.10686
 Alpha virt. eigenvalues --    1.10955   1.11623   1.12144   1.12687   1.13041
 Alpha virt. eigenvalues --    1.13993   1.14343   1.16229   1.16622   1.17034
 Alpha virt. eigenvalues --    1.17489   1.17606   1.18568   1.19079   1.19229
 Alpha virt. eigenvalues --    1.20186   1.20242   1.20756   1.21332   1.22640
 Alpha virt. eigenvalues --    1.22859   1.23670   1.24017   1.24403   1.24779
 Alpha virt. eigenvalues --    1.25604   1.25924   1.26546   1.27181   1.27576
 Alpha virt. eigenvalues --    1.28858   1.29225   1.29669   1.30523   1.30940
 Alpha virt. eigenvalues --    1.31801   1.31919   1.33072   1.33396   1.35215
 Alpha virt. eigenvalues --    1.37539   1.38165   1.38699   1.38926   1.40388
 Alpha virt. eigenvalues --    1.40636   1.42186   1.43779   1.44604   1.45883
 Alpha virt. eigenvalues --    1.46906   1.48311   1.50231   1.50504   1.51815
 Alpha virt. eigenvalues --    1.53408   1.55287   1.55751   1.58678   1.60087
 Alpha virt. eigenvalues --    1.61335   1.63163   1.68571   1.70447   1.72513
 Alpha virt. eigenvalues --    1.75063   1.76232   1.81534   1.85377   1.91829
 Alpha virt. eigenvalues --    1.93652   2.02461   2.06623   2.13057   2.17238
 Alpha virt. eigenvalues --    2.24936   2.36324
          Condensed to atoms (all electrons):
 Mulliken charges:
               1
     1  C   -0.970132
     2  C   -0.341469
     3  C    0.505919
     4  C    0.604717
     5  C   -0.571120
     6  C   -0.491314
     7  C   -0.465919
     8  C    0.772182
     9  C   -0.269337
    10  C   -0.357644
    11  C   -0.708859
    12  C    0.002409
    13  O   -0.559922
    14  C   -0.582303
    15  C   -0.256034
    16  C   -0.589066
    17  C   -0.585617
    18  C   -0.698411
    19  C   -0.678251
    20  C    0.354917
    21  C   -0.071059
    22  C   -0.247927
    23  C    0.138512
    24  C   -0.864188
    25  C    0.155273
    26  C   -0.741204
    27  C   -0.610648
    28  C   -0.907760
    29  H    0.229319
    30  H    0.216473
    31  H    0.199061
    32  H    0.224063
    33  H    0.219573
    34  H    0.211332
    35  H    0.207011
    36  H    0.229753
    37  H    0.162956
    38  H    0.168031
    39  H    0.200964
    40  H    0.249460
    41  H    0.192952
    42  H    0.413277
    43  H    0.188013
    44  H    0.211256
    45  H    0.193572
    46  H    0.227937
    47  H    0.221864
    48  H    0.189619
    49  H    0.205099
    50  H    0.201501
    51  H    0.203080
    52  H    0.214862
    53  H    0.205423
    54  H    0.200296
    55  H    0.187887
    56  H    0.200476
    57  H    0.195173
    58  H    0.189626
    59  H    0.191281
    60  H    0.184372
    61  H    0.184015
    62  H    0.193187
    63  H    0.185924
    64  H    0.194758
    65  H    0.187582
    66  H    0.187347
    67  H    0.194034
    68  H    0.187739
    69  H    0.187785
    70  H    0.193221
    71  H    0.193650
    72  H    0.209455
 Sum of Mulliken charges =  -0.00000
 Mulliken charges with hydrogens summed into heavy atoms:
               1
     1  C   -0.325280
     2  C   -0.341469
     3  C    0.729981
     4  C    0.604717
     5  C   -0.351547
     6  C   -0.491314
     7  C    0.182177
     8  C    0.772182
     9  C   -0.106381
    10  C   -0.189613
    11  C   -0.258435
    12  C    0.195361
    13  O   -0.146645
    14  C   -0.183035
    15  C    0.165475
    16  C   -0.177583
    17  C   -0.179017
    18  C   -0.280470
    19  C   -0.272532
    20  C    0.542804
    21  C    0.129417
    22  C    0.136871
    23  C    0.514166
    24  C   -0.486986
    25  C    0.341198
    26  C   -0.171517
    27  C   -0.041090
    28  C   -0.311434
 Electronic spatial extent (au):  <R**2>=          17807.5073
 Charge=             -0.0000 electrons
 Dipole moment (field-independent basis, Debye):
    X=             -0.4904    Y=              2.3130    Z=              0.3702  Tot=              2.3932
 Quadrupole moment (field-independent basis, Debye-Ang):
   XX=           -183.2095   YY=           -183.0241   ZZ=           -180.7742
   XY=             14.3322   XZ=              3.0262   YZ=             -2.3711
 Traceless Quadrupole moment (field-independent basis, Debye-Ang):
   XX=             -0.8736   YY=             -0.6881   ZZ=              1.5617
   XY=             14.3322   XZ=              3.0262   YZ=             -2.3711
 Octapole moment (field-independent basis, Debye-Ang**2):
  XXX=             40.2166  YYY=              5.2972  ZZZ=              2.2285  XYY=              7.1326
  XXY=            120.8529  XXZ=             37.3305  XZZ=             12.6414  YZZ=             -2.1876
  YYZ=              0.6515  XYZ=            -11.8415
 Hexadecapole moment (field-independent basis, Debye-Ang**3):
 XXXX=         -20616.7596 YYYY=          -2550.1966 ZZZZ=          -1694.8787 XXXY=            913.9328
 XXXZ=            128.9943 YYYX=             -1.8258 YYYZ=             -0.2596 ZZZX=            -12.4650
 ZZZY=            -15.2159 XXYY=          -3970.2467 XXZZ=          -3788.0007 YYZZ=           -692.4400
 XXYZ=           -139.7937 YYXZ=              4.9741 ZZXY=            -16.6562
 N-N= 2.772466713594D+03 E-N=-8.164354237828D+03  KE= 1.123703194330D+03
 No NMR shielding tensors so no spin-rotation constants.
 Leave Link  601 at Mon Jul 28 19:38:06 2025, MaxMem=  1073741824 cpu:               1.8 elap:               0.3
 (Enter /app/gaussian/g16/l9999.exe)
 Unable to Open any file for archive entry.
 1\1\GINC-NODE43\FOpt\RB3LYP\6-31+G\C27H44O1\KOHEI.NUMATA\28-Jul-2025\0
 \\#p opt B3LYP/6-31+G\\7-dehydrocholesterol Opt B3LYP/6-31+G\\0,1\C,0.
 5874743193,-0.3682665376,-0.6388400787\C,0.1464544198,-0.4494886223,0.
 845322046\C,-0.6111804008,0.8529376588,1.2599664045\C,-1.8837336961,1.
 1043834082,0.4942893764\C,-2.8502223479,-0.0905539822,0.4323894256\C,-
 4.0330981897,0.1103619495,-0.5940276816\C,-3.5855237241,-0.1910600614,
 -2.0568924989\C,-4.5243790551,1.5684172123,-0.5827419489\C,-3.66329093
 73,2.5790388793,-0.336270263\C,-2.2924132476,2.3338950073,0.1044722937
 \C,-5.979099323,1.7721324642,-0.9221813701\C,-6.8985666997,1.079019307
 7,0.1070096203\O,-8.0982807788,0.6837812402,-0.6581018391\C,-6.2089265
 732,-0.1403148685,0.7540916533\C,-5.2379540329,-0.8227525238,-0.224963
 7364\C,-2.1083924349,-1.4471150259,0.2173567946\C,-0.8261587992,-1.625
 0165195,1.0638634573\C,0.4968398574,1.9252906898,1.3339289823\C,1.7619
 62198,1.1363636321,1.8146037109\C,1.3407053012,-0.3732288463,1.8554585
 092\C,2.4606331514,-1.4566161667,1.8490558394\C,3.34932873,-1.67189701
 24,0.5870923735\C,4.3404491745,-0.5648950328,0.1680343565\C,5.32732786
 14,-1.0570163538,-0.9105920798\C,6.4028229479,-0.0286469432,-1.3378850
 932\C,7.4553506889,-0.6953832283,-2.2476696766\C,5.7940164668,1.205354
 0924,-2.035495438\C,3.3428460481,-1.2958831033,3.1118620725\H,-0.20980
 76505,0.0501807418,-1.2623906401\H,1.4671676157,0.2689911167,-0.768367
 3465\H,0.8311882327,-1.3602377018,-1.0347707422\H,-0.936464684,0.66456
 7211,2.3029105046\H,-3.3108894511,-0.1432857878,1.4404972059\H,-4.3642
 179037,0.1310063855,-2.757436119\H,-3.4248359194,-1.2629911669,-2.2170
 1098\H,-2.663527396,0.3456093033,-2.3049073061\H,-3.9989664816,3.61185
 65092,-0.4121557566\H,-1.6333602895,3.1904213882,0.2185881473\H,-6.224
 0491452,2.8363887499,-1.0007801654\H,-6.2174314504,1.3166378563,-1.894
 8410092\H,-7.2046665644,1.7907131287,0.8862011218\H,-8.8051974883,0.36
 14311403,-0.0635047475\H,-6.972613115,-0.8481163991,1.1047713295\H,-5.
 6613021122,0.196643573,1.6455527178\H,-4.8665617179,-1.7634218855,0.19
 81136248\H,-5.7889312981,-1.0892685149,-1.1364348648\H,-1.8314960705,-
 1.5471881246,-0.8363475693\H,-2.7981457115,-2.2722850339,0.4342609182\
 H,-1.0833107955,-1.6819074439,2.1332992732\H,-0.3537217518,-2.58166917
 16,0.7977373073\H,0.2353171049,2.7422532547,2.0159766022\H,0.667579795
 9,2.3719547617,0.3463304453\H,2.6002880069,1.3036425664,1.1337966071\H
 ,2.0909471608,1.4725063088,2.8045745588\H,0.8594648784,-0.5195416664,2
 .8390966047\H,1.9240434365,-2.4135161868,1.9702492431\H,2.7160964286,-
 1.9199063723,-0.2719356932\H,3.9385243389,-2.5809745331,0.7913479014\H
 ,4.9134056931,-0.2183189748,1.0401849863\H,3.7923043644,0.3040159534,-
 0.2129943771\H,5.8370321462,-1.9572234688,-0.5331621161\H,4.7649941478
 ,-1.3736408398,-1.8044777036\H,6.9157860442,0.3156701139,-0.4240757844
 \H,6.9909537259,-1.0619925924,-3.1736070271\H,7.9291192745,-1.54991290
 73,-1.7482872254\H,8.2444491676,0.0139456742,-2.5269479594\H,5.2459981
 061,0.905492019,-2.9397808325\H,6.5796357512,1.9088993903,-2.338645332
 \H,5.0989477592,1.7459789262,-1.3833157703\H,2.7299659244,-1.311464268
 5,4.0219576728\H,4.0717942249,-2.11298378,3.1836033573\H,3.8995037432,
 -0.3518009663,3.1037417267\\Version=ES64L-G16RevC.01\State=1-A\HF=-113
 0.3250488\RMSD=7.272e-09\RMSF=3.160e-06\Dipole=0.165535,-0.3181676,0.8
 705852\Quadrupole=-0.1081702,1.5874961,-1.4793259,3.2686431,-10.442646
 8,0.796581\PG=C01 [X(C27H44O1)]\\@
 The archive entry for this job was punched.


 In the beginning the Universe was created.
 This has made a lot of people very angry
 and been widely regarded as a bad move.
                               -D.Adams
 Job cpu time:       0 days  8 hours  5 minutes 56.6 seconds.
 Elapsed time:       0 days  1 hours  0 minutes 59.4 seconds.
 File lengths (MBytes):  RWF=    188 Int=      0 D2E=      0 Chk=     24 Scr=      8
 Normal termination of Gaussian 16 at Mon Jul 28 19:38:06 2025.
