72
7-dehydrocholesterol optimized geometry
C -1.085021 -0.475773 -0.658593
C -0.646146 0.891896 -0.074896
C 0.247067 0.682271 1.190206
C 1.534433 -0.054891 0.929132
C 2.369146 0.492194 -0.241235
C 3.560447 -0.455473 -0.660549
C 3.074835 -1.625652 -1.569401
C 4.202792 -1.105755 0.577165
C 3.454560 -1.399029 1.662392
C 2.068139 -0.956005 1.785769
C 5.668825 -1.436261 0.456986
C 6.516226 -0.162821 0.244098
O 7.662974 -0.600225 -0.577224
C 5.705744 0.948191 -0.455806
C 4.662382 0.360137 -1.421541
C 1.487136 0.904049 -1.461580
C 0.198382 1.677735 -1.097066
C -0.741239 0.196904 2.272236
C -2.079596 0.934214 1.927036
C -1.819629 1.695040 0.581096
C -3.047570 2.146544 -0.265259
C -3.961550 1.093884 -0.961839
C -4.832908 0.162272 -0.092232
C -5.872617 -0.603404 -0.936209
C -6.836219 -1.509241 -0.131385
C -7.958610 -2.047103 -1.042978
C -6.104875 -2.675298 0.565402
C -3.900340 3.147038 0.553648
H -0.251808 -1.186634 -0.660773
H -1.893374 -0.927145 -0.075873
H -1.434340 -0.372083 -1.691738
H 0.556914 1.705447 1.483687
H 2.827712 1.427170 0.141930
H 3.878940 -2.360220 -1.690550
H 2.801057 -1.272720 -2.569891
H 2.213099 -2.136443 -1.126562
H 3.896809 -1.934249 2.500905
H 1.503771 -1.285092 2.654217
H 6.024154 -1.992600 1.330512
H 5.851971 -2.071269 -0.422541
H 6.900323 0.205675 1.205360
H 8.335507 0.106740 -0.648541
H 6.392625 1.622646 -0.985412
H 5.202050 1.553268 0.311208
H 4.196411 1.157158 -2.012654
H 5.176718 -0.295405 -2.136460
H 1.194927 0.008436 -2.017880
H 2.087320 1.512038 -2.149941
H 0.454500 2.659781 -0.669225
H -0.373880 1.869361 -2.016304
H -0.390951 0.428433 3.284512
H -0.869838 -0.891388 2.216603
H -2.899671 0.217861 1.834369
H -2.365370 1.636314 2.718650
H -1.350620 2.653098 0.868670
H -2.614155 2.724877 -1.099499
H -3.363153 0.479623 -1.643767
H -4.642085 1.673317 -1.607148
H -5.360895 0.744682 0.676578
H -4.198488 -0.556238 0.438716
H -6.472133 0.128271 -1.499997
H -5.352166 -1.219481 -1.687928
H -7.304536 -0.886343 0.649263
H -7.541011 -2.672431 -1.844229
H -8.516845 -1.227549 -1.512835
H -8.670172 -2.660367 -0.476051
H -5.596954 -3.309030 -0.175120
H -6.813730 -3.306776 1.115706
H -5.352783 -2.321680 1.279578
H -3.287082 3.984857 0.908773
H -4.710941 3.560283 -0.059802
H -4.354384 2.673628 1.431686