 Entering Gaussian System, Link 0=g16
 Initial command:
 /app/gaussian/g16/l1.exe "/work/scr/Gau-255598.inp" -scrdir="/work/scr/"
 Entering Link 1 = /app/gaussian/g16/l1.exe PID=    255599.
  
 Copyright (c) 1988-2019, Gaussian, Inc.  All Rights Reserved.
  
 This is part of the Gaussian(R) 16 program.  It is based on
 the Gaussian(R) 09 system (copyright 2009, Gaussian, Inc.),
 the Gaussian(R) 03 system (copyright 2003, Gaussian, Inc.),
 the Gaussian(R) 98 system (copyright 1998, Gaussian, Inc.),
 the Gaussian(R) 94 system (copyright 1995, Gaussian, Inc.),
 the Gaussian 92(TM) system (copyright 1992, Gaussian, Inc.),
 the Gaussian 90(TM) system (copyright 1990, Gaussian, Inc.),
 the Gaussian 88(TM) system (copyright 1988, Gaussian, Inc.),
 the Gaussian 86(TM) system (copyright 1986, Carnegie Mellon
 University), and the Gaussian 82(TM) system (copyright 1983,
 Carnegie Mellon University). Gaussian is a federally registered
 trademark of Gaussian, Inc.
  
 This software contains proprietary and confidential information,
 including trade secrets, belonging to Gaussian, Inc.
  
 This software is provided under written license and may be
 used, copied, transmitted, or stored only in accord with that
 written license.
  
 The following legend is applicable only to US Government
 contracts under FAR:
  
                    RESTRICTED RIGHTS LEGEND
  
 Use, reproduction and disclosure by the US Government is
 subject to restrictions as set forth in subparagraphs (a)
 and (c) of the Commercial Computer Software - Restricted
 Rights clause in FAR 52.227-19.
  
 Gaussian, Inc.
 340 Quinnipiac St., Bldg. 40, Wallingford CT 06492
  
  
 ---------------------------------------------------------------
 Warning -- This program may not be used in any manner that
 competes with the business of Gaussian, Inc. or will provide
 assistance to any competitor of Gaussian, Inc.  The licensee
 of this program is prohibited from giving any competitor of
 Gaussian, Inc. access to this program.  By using this program,
 the user acknowledges that Gaussian, Inc. is engaged in the
 business of creating and licensing software in the field of
 computational chemistry and represents and warrants to the
 licensee that it is not a competitor of Gaussian, Inc. and that
 it will not use this program in any manner prohibited above.
 ---------------------------------------------------------------
  

 Cite this work as:
 Gaussian 16, Revision C.01,
 M. J. Frisch, G. W. Trucks, H. B. Schlegel, G. E. Scuseria, 
 M. A. Robb, J. R. Cheeseman, G. Scalmani, V. Barone, 
 G. A. Petersson, H. Nakatsuji, X. Li, M. Caricato, A. V. Marenich, 
 J. Bloino, B. G. Janesko, R. Gomperts, B. Mennucci, H. P. Hratchian, 
 J. V. Ortiz, A. F. Izmaylov, J. L. Sonnenberg, D. Williams-Young, 
 F. Ding, F. Lipparini, F. Egidi, J. Goings, B. Peng, A. Petrone, 
 T. Henderson, D. Ranasinghe, V. G. Zakrzewski, J. Gao, N. Rega, 
 G. Zheng, W. Liang, M. Hada, M. Ehara, K. Toyota, R. Fukuda, 
 J. Hasegawa, M. Ishida, T. Nakajima, Y. Honda, O. Kitao, H. Nakai, 
 T. Vreven, K. Throssell, J. A. Montgomery, Jr., J. E. Peralta, 
 F. Ogliaro, M. J. Bearpark, J. J. Heyd, E. N. Brothers, K. N. Kudin, 
 V. N. Staroverov, T. A. Keith, R. Kobayashi, J. Normand, 
 K. Raghavachari, A. P. Rendell, J. C. Burant, S. S. Iyengar, 
 J. Tomasi, M. Cossi, J. M. Millam, M. Klene, C. Adamo, R. Cammi, 
 J. W. Ochterski, R. L. Martin, K. Morokuma, O. Farkas, 
 J. B. Foresman, and D. J. Fox, Gaussian, Inc., Wallingford CT, 2019.
 
 ******************************************
 Gaussian 16:  ES64L-G16RevC.01  3-Jul-2019
                28-Jul-2025 
 ******************************************
 %mem=8GB
 %nprocshared=8
 Will use up to    8 processors via shared memory.
 -------------------
 #p opt B3LYP/6-31+G
 -------------------
 1/18=20,19=15,26=3,38=1/1,3;
 2/9=110,12=2,17=6,18=5,40=1/2;
 3/5=1,6=6,7=10,11=2,25=1,30=1,71=1,74=-5/1,2,3;
 4//1;
 5/5=2,38=5/2;
 6/7=2,8=2,9=2,10=2,28=1/1;
 7//1,2,3,16;
 1/18=20,19=15,26=3/3(2);
 2/9=110/2;
 99//99;
 2/9=110/2;
 3/5=1,6=6,7=10,11=2,25=1,30=1,71=1,74=-5/1,2,3;
 4/5=5,16=3,69=1/1;
 5/5=2,38=5/2;
 7//1,2,3,16;
 1/18=20,19=15,26=3/3(-5);
 2/9=110/2;
 6/7=2,8=2,9=2,10=2,19=2,28=1/1;
 99/9=1/99;
 Leave Link    1 at Mon Jul 28 18:34:51 2025, MaxMem=  1073741824 cpu:               0.5 elap:               0.1
 (Enter /app/gaussian/g16/l101.exe)
 ----------------------------
 cholesterol Opt B3LYP/6-31+G
 ----------------------------
 Symbolic Z-matrix:
 Charge =  0 Multiplicity = 1
 C                     0.48767  -0.24847   1.3923 
 C                     0.29927   0.42411   0.01139 
 C                    -0.4143   -0.47855  -1.02549 
 C                    -1.81717  -0.92946  -0.60059 
 C                    -2.70864   0.31641  -0.34277 
 C                    -4.15799  -0.0935    0.13913 
 C                    -4.15278  -0.5475    1.61863 
 C                    -4.70641  -1.25025  -0.71092 
 C                    -3.93136  -1.99286  -1.52155 
 C                    -2.45339  -1.82007  -1.67969 
 C                    -6.19008  -1.53119  -0.60866 
 C                    -7.03052  -0.2676   -0.7988 
 O                    -8.40464  -0.54983  -0.5421 
 C                    -6.58026   0.83613   0.1521 
 C                    -5.0928    1.14318  -0.01811 
 C                    -2.01104   1.36016   0.56541 
 C                    -0.56821   1.68966   0.14352 
 C                     0.61069  -1.55455  -1.34456 
 C                     1.95003  -0.81015  -1.29363 
 C                     1.6719    0.60884  -0.71055 
 C                     2.89572   1.15961   0.08264 
 C                     4.13865   1.23946  -0.84567 
 C                     5.45772   1.67105  -0.18912 
 C                     5.89608   0.84898   1.02856 
 C                     6.03768  -0.667     0.79526 
 C                     7.07606  -0.99641  -0.27764 
 C                     6.41422  -1.35839   2.10853 
 C                     2.61355   2.52919   0.70695 
 H                     0.92964   0.4489    2.11094 
 H                    -0.4546   -0.59018   1.82847 
 H                     1.14744  -1.1204    1.34431 
 H                    -0.54137   0.10529  -1.95314 
 H                    -1.74277  -1.52335   0.31746 
 H                    -2.82509   0.81134  -1.3208 
 H                    -5.12678  -0.93131   1.94012 
 H                    -3.42525  -1.3461    1.79648 
 H                    -3.91555   0.28046   2.29457 
 H                    -4.37437  -2.78953  -2.11618 
 H                    -1.98034  -2.80917  -1.65242 
 H                    -2.26888  -1.4075   -2.67939 
 H                    -6.50827  -2.27946  -1.34618 
 H                    -6.41387  -1.98393   0.36549 
 H                    -6.95089   0.08618  -1.83414 
 H                    -8.68532  -1.22994  -1.17834 
 H                    -7.16905   1.74288  -0.03456 
 H                    -6.80103   0.55609   1.18956 
 H                    -4.82015   1.92162   0.70445 
 H                    -4.95286   1.58451  -1.01444 
 H                    -2.58401   2.29428   0.56164 
 H                    -1.99345   1.01714   1.60393 
 H                    -0.5947    2.22947  -0.81201 
 H                    -0.15329   2.38551   0.87713 
 H                     0.59158  -2.36143  -0.60345 
 H                     0.44376  -2.00599  -2.32792 
 H                     2.65725  -1.37642  -0.67694 
 H                     2.38003  -0.72833  -2.29836 
 H                     1.51048   1.28318  -1.56569 
 H                     3.12061   0.4595    0.89526 
 H                     4.31137   0.26915  -1.32292 
 H                     3.92468   1.93872  -1.6649 
 H                     6.24688   1.63797  -0.95035 
 H                     5.39419   2.72477   0.10611 
 H                     6.85731   1.24952   1.37705 
 H                     5.18768   1.02258   1.84788 
 H                     5.07235  -1.07671   0.47642 
 H                     7.19671  -2.08025  -0.38016 
 H                     6.77523  -0.6104   -1.25615 
 H                     8.0536   -0.5705   -0.02835 
 H                     7.38173  -1.0053    2.48124 
 H                     5.66152  -1.16428   2.87991 
 H                     6.47885  -2.44314   1.97288 
 H                     1.86219   2.45938   1.49547 
 H                     2.26635   3.24468  -0.04555 
 H                     3.5008    2.94949   1.18844 
 
 ITRead=  0  0  0  0  0  0  0  0  0  0  0  0  0  0  0  0  0  0  0  0
 ITRead=  0  0  0  0  0  0  0  0  0  0  0  0  0  0  0  0  0  0  0  0
 ITRead=  0  0  0  0  0  0  0  0  0  0  0  0  0  0  0  0  0  0  0  0
 ITRead=  0  0  0  0  0  0  0  0  0  0  0  0  0  0
 MicOpt= -1 -1 -1 -1 -1 -1 -1 -1 -1 -1 -1 -1 -1 -1 -1 -1 -1 -1 -1 -1
 MicOpt= -1 -1 -1 -1 -1 -1 -1 -1 -1 -1 -1 -1 -1 -1 -1 -1 -1 -1 -1 -1
 MicOpt= -1 -1 -1 -1 -1 -1 -1 -1 -1 -1 -1 -1 -1 -1 -1 -1 -1 -1 -1 -1
 MicOpt= -1 -1 -1 -1 -1 -1 -1 -1 -1 -1 -1 -1 -1 -1
 NAtoms=     74 NQM=       74 NQMF=       0 NMMI=      0 NMMIF=      0
                NMic=       0 NMicF=      0.
                    Isotopes and Nuclear Properties:
 (Nuclear quadrupole moments (NQMom) in fm**2, nuclear magnetic moments (NMagM)
  in nuclear magnetons)

  Atom         1           2           3           4           5           6           7           8           9          10
 IAtWgt=          12          12          12          12          12          12          12          12          12          12
 AtmWgt=  12.0000000  12.0000000  12.0000000  12.0000000  12.0000000  12.0000000  12.0000000  12.0000000  12.0000000  12.0000000
 NucSpn=           0           0           0           0           0           0           0           0           0           0
 AtZEff=  -0.0000000  -0.0000000  -0.0000000  -0.0000000  -0.0000000  -0.0000000  -0.0000000  -0.0000000  -0.0000000  -0.0000000
 NQMom=    0.0000000   0.0000000   0.0000000   0.0000000   0.0000000   0.0000000   0.0000000   0.0000000   0.0000000   0.0000000
 NMagM=    0.0000000   0.0000000   0.0000000   0.0000000   0.0000000   0.0000000   0.0000000   0.0000000   0.0000000   0.0000000
 AtZNuc=   6.0000000   6.0000000   6.0000000   6.0000000   6.0000000   6.0000000   6.0000000   6.0000000   6.0000000   6.0000000

  Atom        11          12          13          14          15          16          17          18          19          20
 IAtWgt=          12          12          16          12          12          12          12          12          12          12
 AtmWgt=  12.0000000  12.0000000  15.9949146  12.0000000  12.0000000  12.0000000  12.0000000  12.0000000  12.0000000  12.0000000
 NucSpn=           0           0           0           0           0           0           0           0           0           0
 AtZEff=  -0.0000000  -0.0000000  -0.0000000  -0.0000000  -0.0000000  -0.0000000  -0.0000000  -0.0000000  -0.0000000  -0.0000000
 NQMom=    0.0000000   0.0000000   0.0000000   0.0000000   0.0000000   0.0000000   0.0000000   0.0000000   0.0000000   0.0000000
 NMagM=    0.0000000   0.0000000   0.0000000   0.0000000   0.0000000   0.0000000   0.0000000   0.0000000   0.0000000   0.0000000
 AtZNuc=   6.0000000   6.0000000   8.0000000   6.0000000   6.0000000   6.0000000   6.0000000   6.0000000   6.0000000   6.0000000

  Atom        21          22          23          24          25          26          27          28          29          30
 IAtWgt=          12          12          12          12          12          12          12          12           1           1
 AtmWgt=  12.0000000  12.0000000  12.0000000  12.0000000  12.0000000  12.0000000  12.0000000  12.0000000   1.0078250   1.0078250
 NucSpn=           0           0           0           0           0           0           0           0           1           1
 AtZEff=  -0.0000000  -0.0000000  -0.0000000  -0.0000000  -0.0000000  -0.0000000  -0.0000000  -0.0000000  -0.0000000  -0.0000000
 NQMom=    0.0000000   0.0000000   0.0000000   0.0000000   0.0000000   0.0000000   0.0000000   0.0000000   0.0000000   0.0000000
 NMagM=    0.0000000   0.0000000   0.0000000   0.0000000   0.0000000   0.0000000   0.0000000   0.0000000   2.7928460   2.7928460
 AtZNuc=   6.0000000   6.0000000   6.0000000   6.0000000   6.0000000   6.0000000   6.0000000   6.0000000   1.0000000   1.0000000

  Atom        31          32          33          34          35          36          37          38          39          40
 IAtWgt=           1           1           1           1           1           1           1           1           1           1
 AtmWgt=   1.0078250   1.0078250   1.0078250   1.0078250   1.0078250   1.0078250   1.0078250   1.0078250   1.0078250   1.0078250
 NucSpn=           1           1           1           1           1           1           1           1           1           1
 AtZEff=  -0.0000000  -0.0000000  -0.0000000  -0.0000000  -0.0000000  -0.0000000  -0.0000000  -0.0000000  -0.0000000  -0.0000000
 NQMom=    0.0000000   0.0000000   0.0000000   0.0000000   0.0000000   0.0000000   0.0000000   0.0000000   0.0000000   0.0000000
 NMagM=    2.7928460   2.7928460   2.7928460   2.7928460   2.7928460   2.7928460   2.7928460   2.7928460   2.7928460   2.7928460
 AtZNuc=   1.0000000   1.0000000   1.0000000   1.0000000   1.0000000   1.0000000   1.0000000   1.0000000   1.0000000   1.0000000

  Atom        41          42          43          44          45          46          47          48          49          50
 IAtWgt=           1           1           1           1           1           1           1           1           1           1
 AtmWgt=   1.0078250   1.0078250   1.0078250   1.0078250   1.0078250   1.0078250   1.0078250   1.0078250   1.0078250   1.0078250
 NucSpn=           1           1           1           1           1           1           1           1           1           1
 AtZEff=  -0.0000000  -0.0000000  -0.0000000  -0.0000000  -0.0000000  -0.0000000  -0.0000000  -0.0000000  -0.0000000  -0.0000000
 NQMom=    0.0000000   0.0000000   0.0000000   0.0000000   0.0000000   0.0000000   0.0000000   0.0000000   0.0000000   0.0000000
 NMagM=    2.7928460   2.7928460   2.7928460   2.7928460   2.7928460   2.7928460   2.7928460   2.7928460   2.7928460   2.7928460
 AtZNuc=   1.0000000   1.0000000   1.0000000   1.0000000   1.0000000   1.0000000   1.0000000   1.0000000   1.0000000   1.0000000

  Atom        51          52          53          54          55          56          57          58          59          60
 IAtWgt=           1           1           1           1           1           1           1           1           1           1
 AtmWgt=   1.0078250   1.0078250   1.0078250   1.0078250   1.0078250   1.0078250   1.0078250   1.0078250   1.0078250   1.0078250
 NucSpn=           1           1           1           1           1           1           1           1           1           1
 AtZEff=  -0.0000000  -0.0000000  -0.0000000  -0.0000000  -0.0000000  -0.0000000  -0.0000000  -0.0000000  -0.0000000  -0.0000000
 NQMom=    0.0000000   0.0000000   0.0000000   0.0000000   0.0000000   0.0000000   0.0000000   0.0000000   0.0000000   0.0000000
 NMagM=    2.7928460   2.7928460   2.7928460   2.7928460   2.7928460   2.7928460   2.7928460   2.7928460   2.7928460   2.7928460
 AtZNuc=   1.0000000   1.0000000   1.0000000   1.0000000   1.0000000   1.0000000   1.0000000   1.0000000   1.0000000   1.0000000

  Atom        61          62          63          64          65          66          67          68          69          70
 IAtWgt=           1           1           1           1           1           1           1           1           1           1
 AtmWgt=   1.0078250   1.0078250   1.0078250   1.0078250   1.0078250   1.0078250   1.0078250   1.0078250   1.0078250   1.0078250
 NucSpn=           1           1           1           1           1           1           1           1           1           1
 AtZEff=  -0.0000000  -0.0000000  -0.0000000  -0.0000000  -0.0000000  -0.0000000  -0.0000000  -0.0000000  -0.0000000  -0.0000000
 NQMom=    0.0000000   0.0000000   0.0000000   0.0000000   0.0000000   0.0000000   0.0000000   0.0000000   0.0000000   0.0000000
 NMagM=    2.7928460   2.7928460   2.7928460   2.7928460   2.7928460   2.7928460   2.7928460   2.7928460   2.7928460   2.7928460
 AtZNuc=   1.0000000   1.0000000   1.0000000   1.0000000   1.0000000   1.0000000   1.0000000   1.0000000   1.0000000   1.0000000

  Atom        71          72          73          74
 IAtWgt=           1           1           1           1
 AtmWgt=   1.0078250   1.0078250   1.0078250   1.0078250
 NucSpn=           1           1           1           1
 AtZEff=  -0.0000000  -0.0000000  -0.0000000  -0.0000000
 NQMom=    0.0000000   0.0000000   0.0000000   0.0000000
 NMagM=    2.7928460   2.7928460   2.7928460   2.7928460
 AtZNuc=   1.0000000   1.0000000   1.0000000   1.0000000
 Leave Link  101 at Mon Jul 28 18:34:52 2025, MaxMem=  1073741824 cpu:               1.8 elap:               0.2
 (Enter /app/gaussian/g16/l103.exe)

 GradGradGradGradGradGradGradGradGradGradGradGradGradGradGradGradGradGrad
 Berny optimization.
 Initialization pass.
                           ----------------------------
                           !    Initial Parameters    !
                           ! (Angstroms and Degrees)  !
 --------------------------                            --------------------------
 ! Name  Definition              Value          Derivative Info.                !
 --------------------------------------------------------------------------------
 ! R1    R(1,2)                  1.5475         estimate D2E/DX2                !
 ! R2    R(1,29)                 1.0946         estimate D2E/DX2                !
 ! R3    R(1,30)                 1.0931         estimate D2E/DX2                !
 ! R4    R(1,31)                 1.0945         estimate D2E/DX2                !
 ! R5    R(2,3)                  1.5489         estimate D2E/DX2                !
 ! R6    R(2,17)                 1.54           estimate D2E/DX2                !
 ! R7    R(2,20)                 1.5619         estimate D2E/DX2                !
 ! R8    R(3,4)                  1.5336         estimate D2E/DX2                !
 ! R9    R(3,18)                 1.5199         estimate D2E/DX2                !
 ! R10   R(3,32)                 1.1034         estimate D2E/DX2                !
 ! R11   R(4,5)                  1.5535         estimate D2E/DX2                !
 ! R12   R(4,10)                 1.537          estimate D2E/DX2                !
 ! R13   R(4,33)                 1.0959         estimate D2E/DX2                !
 ! R14   R(5,6)                  1.5814         estimate D2E/DX2                !
 ! R15   R(5,16)                 1.5495         estimate D2E/DX2                !
 ! R16   R(5,34)                 1.1023         estimate D2E/DX2                !
 ! R17   R(6,7)                  1.5476         estimate D2E/DX2                !
 ! R18   R(6,8)                  1.5367         estimate D2E/DX2                !
 ! R19   R(6,15)                 1.5582         estimate D2E/DX2                !
 ! R20   R(7,35)                 1.0951         estimate D2E/DX2                !
 ! R21   R(7,36)                 1.0949         estimate D2E/DX2                !
 ! R22   R(7,37)                 1.0948         estimate D2E/DX2                !
 ! R23   R(8,9)                  1.3451         estimate D2E/DX2                !
 ! R24   R(8,11)                 1.5135         estimate D2E/DX2                !
 ! R25   R(9,10)                 1.4964         estimate D2E/DX2                !
 ! R26   R(9,38)                 1.0884         estimate D2E/DX2                !
 ! R27   R(10,39)                1.0967         estimate D2E/DX2                !
 ! R28   R(10,40)                1.0971         estimate D2E/DX2                !
 ! R29   R(11,12)                1.5294         estimate D2E/DX2                !
 ! R30   R(11,41)                1.0978         estimate D2E/DX2                !
 ! R31   R(11,42)                1.0973         estimate D2E/DX2                !
 ! R32   R(12,13)                1.4261         estimate D2E/DX2                !
 ! R33   R(12,14)                1.5248         estimate D2E/DX2                !
 ! R34   R(12,43)                1.097          estimate D2E/DX2                !
 ! R35   R(13,44)                0.9727         estimate D2E/DX2                !
 ! R36   R(14,15)                1.5283         estimate D2E/DX2                !
 ! R37   R(14,45)                1.0971         estimate D2E/DX2                !
 ! R38   R(14,46)                1.097          estimate D2E/DX2                !
 ! R39   R(15,47)                1.0965         estimate D2E/DX2                !
 ! R40   R(15,48)                1.0987         estimate D2E/DX2                !
 ! R41   R(16,17)                1.5389         estimate D2E/DX2                !
 ! R42   R(16,49)                1.0958         estimate D2E/DX2                !
 ! R43   R(16,50)                1.0938         estimate D2E/DX2                !
 ! R44   R(17,51)                1.0978         estimate D2E/DX2                !
 ! R45   R(17,52)                1.093          estimate D2E/DX2                !
 ! R46   R(18,19)                1.5332         estimate D2E/DX2                !
 ! R47   R(18,53)                1.0957         estimate D2E/DX2                !
 ! R48   R(18,54)                1.0948         estimate D2E/DX2                !
 ! R49   R(19,20)                1.5591         estimate D2E/DX2                !
 ! R50   R(19,55)                1.096          estimate D2E/DX2                !
 ! R51   R(19,56)                1.0959         estimate D2E/DX2                !
 ! R52   R(20,21)                1.5589         estimate D2E/DX2                !
 ! R53   R(20,57)                1.1009         estimate D2E/DX2                !
 ! R54   R(21,22)                1.5534         estimate D2E/DX2                !
 ! R55   R(21,28)                1.5314         estimate D2E/DX2                !
 ! R56   R(21,58)                1.0959         estimate D2E/DX2                !
 ! R57   R(22,23)                1.5353         estimate D2E/DX2                !
 ! R58   R(22,59)                1.095          estimate D2E/DX2                !
 ! R59   R(22,60)                1.0981         estimate D2E/DX2                !
 ! R60   R(23,24)                1.5332         estimate D2E/DX2                !
 ! R61   R(23,61)                1.097          estimate D2E/DX2                !
 ! R62   R(23,62)                1.0961         estimate D2E/DX2                !
 ! R63   R(24,25)                1.5403         estimate D2E/DX2                !
 ! R64   R(24,63)                1.0981         estimate D2E/DX2                !
 ! R65   R(24,64)                1.0969         estimate D2E/DX2                !
 ! R66   R(25,26)                1.529          estimate D2E/DX2                !
 ! R67   R(25,27)                1.5312         estimate D2E/DX2                !
 ! R68   R(25,65)                1.0961         estimate D2E/DX2                !
 ! R69   R(26,66)                1.0953         estimate D2E/DX2                !
 ! R70   R(26,67)                1.0941         estimate D2E/DX2                !
 ! R71   R(26,68)                1.095          estimate D2E/DX2                !
 ! R72   R(27,69)                1.0953         estimate D2E/DX2                !
 ! R73   R(27,70)                1.0951         estimate D2E/DX2                !
 ! R74   R(27,71)                1.0951         estimate D2E/DX2                !
 ! R75   R(28,72)                1.0914         estimate D2E/DX2                !
 ! R76   R(28,73)                1.0949         estimate D2E/DX2                !
 ! R77   R(28,74)                1.0935         estimate D2E/DX2                !
 ! A1    A(2,1,29)             110.9847         estimate D2E/DX2                !
 ! A2    A(2,1,30)             112.7666         estimate D2E/DX2                !
 ! A3    A(2,1,31)             112.3654         estimate D2E/DX2                !
 ! A4    A(29,1,30)            106.5741         estimate D2E/DX2                !
 ! A5    A(29,1,31)            107.0347         estimate D2E/DX2                !
 ! A6    A(30,1,31)            106.744          estimate D2E/DX2                !
 ! A7    A(1,2,3)              113.5886         estimate D2E/DX2                !
 ! A8    A(1,2,17)             110.4372         estimate D2E/DX2                !
 ! A9    A(1,2,20)             110.9085         estimate D2E/DX2                !
 ! A10   A(3,2,17)             106.0721         estimate D2E/DX2                !
 ! A11   A(3,2,20)              99.4611         estimate D2E/DX2                !
 ! A12   A(17,2,20)            115.9448         estimate D2E/DX2                !
 ! A13   A(2,3,4)              114.0353         estimate D2E/DX2                !
 ! A14   A(2,3,18)             104.0292         estimate D2E/DX2                !
 ! A15   A(2,3,32)             107.908          estimate D2E/DX2                !
 ! A16   A(4,3,18)             117.8331         estimate D2E/DX2                !
 ! A17   A(4,3,32)             106.4485         estimate D2E/DX2                !
 ! A18   A(18,3,32)            106.0069         estimate D2E/DX2                !
 ! A19   A(3,4,5)              109.5792         estimate D2E/DX2                !
 ! A20   A(3,4,10)             110.7627         estimate D2E/DX2                !
 ! A21   A(3,4,33)             109.2277         estimate D2E/DX2                !
 ! A22   A(5,4,10)             110.1011         estimate D2E/DX2                !
 ! A23   A(5,4,33)             109.5443         estimate D2E/DX2                !
 ! A24   A(10,4,33)            107.591          estimate D2E/DX2                !
 ! A25   A(4,5,6)              111.6304         estimate D2E/DX2                !
 ! A26   A(4,5,16)             112.2808         estimate D2E/DX2                !
 ! A27   A(4,5,34)             105.8701         estimate D2E/DX2                !
 ! A28   A(6,5,16)             114.1181         estimate D2E/DX2                !
 ! A29   A(6,5,34)             106.8537         estimate D2E/DX2                !
 ! A30   A(16,5,34)            105.3764         estimate D2E/DX2                !
 ! A31   A(5,6,7)              111.3628         estimate D2E/DX2                !
 ! A32   A(5,6,8)              110.7098         estimate D2E/DX2                !
 ! A33   A(5,6,15)             108.2622         estimate D2E/DX2                !
 ! A34   A(7,6,8)              108.0112         estimate D2E/DX2                !
 ! A35   A(7,6,15)             109.3484         estimate D2E/DX2                !
 ! A36   A(8,6,15)             109.1174         estimate D2E/DX2                !
 ! A37   A(6,7,35)             112.3618         estimate D2E/DX2                !
 ! A38   A(6,7,36)             111.8086         estimate D2E/DX2                !
 ! A39   A(6,7,37)             111.6604         estimate D2E/DX2                !
 ! A40   A(35,7,36)            106.7186         estimate D2E/DX2                !
 ! A41   A(35,7,37)            106.0518         estimate D2E/DX2                !
 ! A42   A(36,7,37)            107.899          estimate D2E/DX2                !
 ! A43   A(6,8,9)              122.9096         estimate D2E/DX2                !
 ! A44   A(6,8,11)             116.8851         estimate D2E/DX2                !
 ! A45   A(9,8,11)             120.2048         estimate D2E/DX2                !
 ! A46   A(8,9,10)             124.6833         estimate D2E/DX2                !
 ! A47   A(8,9,38)             119.9234         estimate D2E/DX2                !
 ! A48   A(10,9,38)            115.3923         estimate D2E/DX2                !
 ! A49   A(4,10,9)             113.6748         estimate D2E/DX2                !
 ! A50   A(4,10,39)            109.0609         estimate D2E/DX2                !
 ! A51   A(4,10,40)            110.6238         estimate D2E/DX2                !
 ! A52   A(9,10,39)            108.6168         estimate D2E/DX2                !
 ! A53   A(9,10,40)            107.8078         estimate D2E/DX2                !
 ! A54   A(39,10,40)           106.8135         estimate D2E/DX2                !
 ! A55   A(8,11,12)            112.1439         estimate D2E/DX2                !
 ! A56   A(8,11,41)            111.4246         estimate D2E/DX2                !
 ! A57   A(8,11,42)            109.6639         estimate D2E/DX2                !
 ! A58   A(12,11,41)           108.6842         estimate D2E/DX2                !
 ! A59   A(12,11,42)           109.827          estimate D2E/DX2                !
 ! A60   A(41,11,42)           104.8376         estimate D2E/DX2                !
 ! A61   A(11,12,13)           110.0967         estimate D2E/DX2                !
 ! A62   A(11,12,14)           110.991          estimate D2E/DX2                !
 ! A63   A(11,12,43)           110.1133         estimate D2E/DX2                !
 ! A64   A(13,12,14)           108.3922         estimate D2E/DX2                !
 ! A65   A(13,12,43)           107.6772         estimate D2E/DX2                !
 ! A66   A(14,12,43)           109.4925         estimate D2E/DX2                !
 ! A67   A(12,13,44)           107.3785         estimate D2E/DX2                !
 ! A68   A(12,14,15)           111.3066         estimate D2E/DX2                !
 ! A69   A(12,14,45)           109.4908         estimate D2E/DX2                !
 ! A70   A(12,14,46)           110.2152         estimate D2E/DX2                !
 ! A71   A(15,14,45)           109.7136         estimate D2E/DX2                !
 ! A72   A(15,14,46)           110.6381         estimate D2E/DX2                !
 ! A73   A(45,14,46)           105.2999         estimate D2E/DX2                !
 ! A74   A(6,15,14)            114.4063         estimate D2E/DX2                !
 ! A75   A(6,15,47)            110.3505         estimate D2E/DX2                !
 ! A76   A(6,15,48)            109.5062         estimate D2E/DX2                !
 ! A77   A(14,15,47)           108.134          estimate D2E/DX2                !
 ! A78   A(14,15,48)           107.7983         estimate D2E/DX2                !
 ! A79   A(47,15,48)           106.3036         estimate D2E/DX2                !
 ! A80   A(5,16,17)            113.9315         estimate D2E/DX2                !
 ! A81   A(5,16,49)            109.6814         estimate D2E/DX2                !
 ! A82   A(5,16,50)            110.639          estimate D2E/DX2                !
 ! A83   A(17,16,49)           107.8637         estimate D2E/DX2                !
 ! A84   A(17,16,50)           108.2007         estimate D2E/DX2                !
 ! A85   A(49,16,50)           106.1994         estimate D2E/DX2                !
 ! A86   A(2,17,16)            112.067          estimate D2E/DX2                !
 ! A87   A(2,17,51)            110.0601         estimate D2E/DX2                !
 ! A88   A(2,17,52)            111.528          estimate D2E/DX2                !
 ! A89   A(16,17,51)           108.7402         estimate D2E/DX2                !
 ! A90   A(16,17,52)           107.9525         estimate D2E/DX2                !
 ! A91   A(51,17,52)           106.2797         estimate D2E/DX2                !
 ! A92   A(3,18,19)            103.793          estimate D2E/DX2                !
 ! A93   A(3,18,53)            111.5649         estimate D2E/DX2                !
 ! A94   A(3,18,54)            112.1869         estimate D2E/DX2                !
 ! A95   A(19,18,53)           110.5061         estimate D2E/DX2                !
 ! A96   A(19,18,54)           111.299          estimate D2E/DX2                !
 ! A97   A(53,18,54)           107.5297         estimate D2E/DX2                !
 ! A98   A(18,19,20)           107.3666         estimate D2E/DX2                !
 ! A99   A(18,19,55)           109.3618         estimate D2E/DX2                !
 ! A100  A(18,19,56)           110.3985         estimate D2E/DX2                !
 ! A101  A(20,19,55)           112.02           estimate D2E/DX2                !
 ! A102  A(20,19,56)           110.1758         estimate D2E/DX2                !
 ! A103  A(55,19,56)           107.5333         estimate D2E/DX2                !
 ! A104  A(2,20,19)            102.8259         estimate D2E/DX2                !
 ! A105  A(2,20,21)            119.7707         estimate D2E/DX2                !
 ! A106  A(2,20,57)            107.6148         estimate D2E/DX2                !
 ! A107  A(19,20,21)           111.8258         estimate D2E/DX2                !
 ! A108  A(19,20,57)           107.0458         estimate D2E/DX2                !
 ! A109  A(21,20,57)           107.0926         estimate D2E/DX2                !
 ! A110  A(20,21,22)           110.0133         estimate D2E/DX2                !
 ! A111  A(20,21,28)           112.2563         estimate D2E/DX2                !
 ! A112  A(20,21,58)           108.2207         estimate D2E/DX2                !
 ! A113  A(22,21,28)           110.1871         estimate D2E/DX2                !
 ! A114  A(22,21,58)           108.1653         estimate D2E/DX2                !
 ! A115  A(28,21,58)           107.8693         estimate D2E/DX2                !
 ! A116  A(21,22,23)           116.5083         estimate D2E/DX2                !
 ! A117  A(21,22,59)           109.9446         estimate D2E/DX2                !
 ! A118  A(21,22,60)           108.8232         estimate D2E/DX2                !
 ! A119  A(23,22,59)           107.4544         estimate D2E/DX2                !
 ! A120  A(23,22,60)           107.9037         estimate D2E/DX2                !
 ! A121  A(59,22,60)           105.6554         estimate D2E/DX2                !
 ! A122  A(22,23,24)           115.7559         estimate D2E/DX2                !
 ! A123  A(22,23,61)           108.2301         estimate D2E/DX2                !
 ! A124  A(22,23,62)           109.6097         estimate D2E/DX2                !
 ! A125  A(24,23,61)           109.2249         estimate D2E/DX2                !
 ! A126  A(24,23,62)           108.5479         estimate D2E/DX2                !
 ! A127  A(61,23,62)           104.9269         estimate D2E/DX2                !
 ! A128  A(23,24,25)           115.702          estimate D2E/DX2                !
 ! A129  A(23,24,63)           107.8628         estimate D2E/DX2                !
 ! A130  A(23,24,64)           108.8872         estimate D2E/DX2                !
 ! A131  A(25,24,63)           109.0617         estimate D2E/DX2                !
 ! A132  A(25,24,64)           109.163          estimate D2E/DX2                !
 ! A133  A(63,24,64)           105.6964         estimate D2E/DX2                !
 ! A134  A(24,25,26)           112.3796         estimate D2E/DX2                !
 ! A135  A(24,25,27)           109.7002         estimate D2E/DX2                !
 ! A136  A(24,25,65)           109.3284         estimate D2E/DX2                !
 ! A137  A(26,25,27)           109.7278         estimate D2E/DX2                !
 ! A138  A(26,25,65)           108.2682         estimate D2E/DX2                !
 ! A139  A(27,25,65)           107.2948         estimate D2E/DX2                !
 ! A140  A(25,26,66)           110.7116         estimate D2E/DX2                !
 ! A141  A(25,26,67)           111.3978         estimate D2E/DX2                !
 ! A142  A(25,26,68)           111.2668         estimate D2E/DX2                !
 ! A143  A(66,26,67)           107.1985         estimate D2E/DX2                !
 ! A144  A(66,26,68)           107.9285         estimate D2E/DX2                !
 ! A145  A(67,26,68)           108.1703         estimate D2E/DX2                !
 ! A146  A(25,27,69)           111.3163         estimate D2E/DX2                !
 ! A147  A(25,27,70)           110.7988         estimate D2E/DX2                !
 ! A148  A(25,27,71)           110.8267         estimate D2E/DX2                !
 ! A149  A(69,27,70)           108.0781         estimate D2E/DX2                !
 ! A150  A(69,27,71)           108.0194         estimate D2E/DX2                !
 ! A151  A(70,27,71)           107.6615         estimate D2E/DX2                !
 ! A152  A(21,28,72)           111.3569         estimate D2E/DX2                !
 ! A153  A(21,28,73)           111.2652         estimate D2E/DX2                !
 ! A154  A(21,28,74)           111.9477         estimate D2E/DX2                !
 ! A155  A(72,28,73)           108.6658         estimate D2E/DX2                !
 ! A156  A(72,28,74)           105.37           estimate D2E/DX2                !
 ! A157  A(73,28,74)           107.9849         estimate D2E/DX2                !
 ! D1    D(29,1,2,3)          -175.9408         estimate D2E/DX2                !
 ! D2    D(29,1,2,17)          -56.9222         estimate D2E/DX2                !
 ! D3    D(29,1,2,20)           73.0312         estimate D2E/DX2                !
 ! D4    D(30,1,2,3)           -56.4487         estimate D2E/DX2                !
 ! D5    D(30,1,2,17)           62.5699         estimate D2E/DX2                !
 ! D6    D(30,1,2,20)         -167.4768         estimate D2E/DX2                !
 ! D7    D(31,1,2,3)            64.2507         estimate D2E/DX2                !
 ! D8    D(31,1,2,17)         -176.7307         estimate D2E/DX2                !
 ! D9    D(31,1,2,20)          -46.7773         estimate D2E/DX2                !
 ! D10   D(1,2,3,4)             59.3535         estimate D2E/DX2                !
 ! D11   D(1,2,3,18)           -70.3172         estimate D2E/DX2                !
 ! D12   D(1,2,3,32)           177.3834         estimate D2E/DX2                !
 ! D13   D(17,2,3,4)           -62.1345         estimate D2E/DX2                !
 ! D14   D(17,2,3,18)          168.1949         estimate D2E/DX2                !
 ! D15   D(17,2,3,32)           55.8955         estimate D2E/DX2                !
 ! D16   D(20,2,3,4)           177.2289         estimate D2E/DX2                !
 ! D17   D(20,2,3,18)           47.5583         estimate D2E/DX2                !
 ! D18   D(20,2,3,32)          -64.7411         estimate D2E/DX2                !
 ! D19   D(1,2,17,16)          -65.8906         estimate D2E/DX2                !
 ! D20   D(1,2,17,51)          172.9718         estimate D2E/DX2                !
 ! D21   D(1,2,17,52)           55.2707         estimate D2E/DX2                !
 ! D22   D(3,2,17,16)           57.5983         estimate D2E/DX2                !
 ! D23   D(3,2,17,51)          -63.5392         estimate D2E/DX2                !
 ! D24   D(3,2,17,52)          178.7597         estimate D2E/DX2                !
 ! D25   D(20,2,17,16)         166.8922         estimate D2E/DX2                !
 ! D26   D(20,2,17,51)          45.7547         estimate D2E/DX2                !
 ! D27   D(20,2,17,52)         -71.9464         estimate D2E/DX2                !
 ! D28   D(1,2,20,19)           79.7053         estimate D2E/DX2                !
 ! D29   D(1,2,20,21)          -45.0106         estimate D2E/DX2                !
 ! D30   D(1,2,20,57)         -167.4824         estimate D2E/DX2                !
 ! D31   D(3,2,20,19)          -40.1588         estimate D2E/DX2                !
 ! D32   D(3,2,20,21)         -164.8748         estimate D2E/DX2                !
 ! D33   D(3,2,20,57)           72.6534         estimate D2E/DX2                !
 ! D34   D(17,2,20,19)        -153.3127         estimate D2E/DX2                !
 ! D35   D(17,2,20,21)          81.9714         estimate D2E/DX2                !
 ! D36   D(17,2,20,57)         -40.5004         estimate D2E/DX2                !
 ! D37   D(2,3,4,5)             58.4227         estimate D2E/DX2                !
 ! D38   D(2,3,4,10)          -179.9126         estimate D2E/DX2                !
 ! D39   D(2,3,4,33)           -61.5835         estimate D2E/DX2                !
 ! D40   D(18,3,4,5)          -179.1916         estimate D2E/DX2                !
 ! D41   D(18,3,4,10)          -57.5269         estimate D2E/DX2                !
 ! D42   D(18,3,4,33)           60.8021         estimate D2E/DX2                !
 ! D43   D(32,3,4,5)           -60.4401         estimate D2E/DX2                !
 ! D44   D(32,3,4,10)           61.2246         estimate D2E/DX2                !
 ! D45   D(32,3,4,33)          179.5537         estimate D2E/DX2                !
 ! D46   D(2,3,18,19)          -35.6683         estimate D2E/DX2                !
 ! D47   D(2,3,18,53)           83.3365         estimate D2E/DX2                !
 ! D48   D(2,3,18,54)         -155.9364         estimate D2E/DX2                !
 ! D49   D(4,3,18,19)         -163.0174         estimate D2E/DX2                !
 ! D50   D(4,3,18,53)          -44.0126         estimate D2E/DX2                !
 ! D51   D(4,3,18,54)           76.7145         estimate D2E/DX2                !
 ! D52   D(32,3,18,19)          77.9979         estimate D2E/DX2                !
 ! D53   D(32,3,18,53)        -162.9973         estimate D2E/DX2                !
 ! D54   D(32,3,18,54)         -42.2702         estimate D2E/DX2                !
 ! D55   D(3,4,5,6)           -178.3812         estimate D2E/DX2                !
 ! D56   D(3,4,5,16)           -48.7741         estimate D2E/DX2                !
 ! D57   D(3,4,5,34)            65.7071         estimate D2E/DX2                !
 ! D58   D(10,4,5,6)            59.5576         estimate D2E/DX2                !
 ! D59   D(10,4,5,16)         -170.8354         estimate D2E/DX2                !
 ! D60   D(10,4,5,34)          -56.3542         estimate D2E/DX2                !
 ! D61   D(33,4,5,6)           -58.5686         estimate D2E/DX2                !
 ! D62   D(33,4,5,16)           71.0384         estimate D2E/DX2                !
 ! D63   D(33,4,5,34)         -174.4804         estimate D2E/DX2                !
 ! D64   D(3,4,10,9)          -164.289          estimate D2E/DX2                !
 ! D65   D(3,4,10,39)           74.3597         estimate D2E/DX2                !
 ! D66   D(3,4,10,40)          -42.8358         estimate D2E/DX2                !
 ! D67   D(5,4,10,9)           -42.9314         estimate D2E/DX2                !
 ! D68   D(5,4,10,39)         -164.2828         estimate D2E/DX2                !
 ! D69   D(5,4,10,40)           78.5218         estimate D2E/DX2                !
 ! D70   D(33,4,10,9)           76.392          estimate D2E/DX2                !
 ! D71   D(33,4,10,39)         -44.9593         estimate D2E/DX2                !
 ! D72   D(33,4,10,40)        -162.1547         estimate D2E/DX2                !
 ! D73   D(4,5,6,7)             75.7694         estimate D2E/DX2                !
 ! D74   D(4,5,6,8)            -44.4179         estimate D2E/DX2                !
 ! D75   D(4,5,6,15)          -163.9858         estimate D2E/DX2                !
 ! D76   D(16,5,6,7)           -52.8695         estimate D2E/DX2                !
 ! D77   D(16,5,6,8)          -173.0568         estimate D2E/DX2                !
 ! D78   D(16,5,6,15)           67.3753         estimate D2E/DX2                !
 ! D79   D(34,5,6,7)          -168.9214         estimate D2E/DX2                !
 ! D80   D(34,5,6,8)            70.8913         estimate D2E/DX2                !
 ! D81   D(34,5,6,15)          -48.6766         estimate D2E/DX2                !
 ! D82   D(4,5,16,17)           48.0316         estimate D2E/DX2                !
 ! D83   D(4,5,16,49)          169.0403         estimate D2E/DX2                !
 ! D84   D(4,5,16,50)          -74.1305         estimate D2E/DX2                !
 ! D85   D(6,5,16,17)          176.3406         estimate D2E/DX2                !
 ! D86   D(6,5,16,49)          -62.6507         estimate D2E/DX2                !
 ! D87   D(6,5,16,50)           54.1785         estimate D2E/DX2                !
 ! D88   D(34,5,16,17)         -66.7507         estimate D2E/DX2                !
 ! D89   D(34,5,16,49)          54.258          estimate D2E/DX2                !
 ! D90   D(34,5,16,50)         171.0872         estimate D2E/DX2                !
 ! D91   D(5,6,7,35)          -174.1782         estimate D2E/DX2                !
 ! D92   D(5,6,7,36)           -54.2008         estimate D2E/DX2                !
 ! D93   D(5,6,7,37)            66.8034         estimate D2E/DX2                !
 ! D94   D(8,6,7,35)           -52.4112         estimate D2E/DX2                !
 ! D95   D(8,6,7,36)            67.5662         estimate D2E/DX2                !
 ! D96   D(8,6,7,37)          -171.4296         estimate D2E/DX2                !
 ! D97   D(15,6,7,35)           66.2197         estimate D2E/DX2                !
 ! D98   D(15,6,7,36)         -173.8029         estimate D2E/DX2                !
 ! D99   D(15,6,7,37)          -52.7988         estimate D2E/DX2                !
 ! D100  D(5,6,8,9)             14.3553         estimate D2E/DX2                !
 ! D101  D(5,6,8,11)          -165.3664         estimate D2E/DX2                !
 ! D102  D(7,6,8,9)           -107.8141         estimate D2E/DX2                !
 ! D103  D(7,6,8,11)            72.4641         estimate D2E/DX2                !
 ! D104  D(15,6,8,9)           133.4079         estimate D2E/DX2                !
 ! D105  D(15,6,8,11)          -46.3138         estimate D2E/DX2                !
 ! D106  D(5,6,15,14)          168.8717         estimate D2E/DX2                !
 ! D107  D(5,6,15,47)          -68.9308         estimate D2E/DX2                !
 ! D108  D(5,6,15,48)           47.7513         estimate D2E/DX2                !
 ! D109  D(7,6,15,14)          -69.6332         estimate D2E/DX2                !
 ! D110  D(7,6,15,47)           52.5643         estimate D2E/DX2                !
 ! D111  D(7,6,15,48)          169.2464         estimate D2E/DX2                !
 ! D112  D(8,6,15,14)           48.3072         estimate D2E/DX2                !
 ! D113  D(8,6,15,47)          170.5047         estimate D2E/DX2                !
 ! D114  D(8,6,15,48)          -72.8132         estimate D2E/DX2                !
 ! D115  D(6,8,9,10)             1.5053         estimate D2E/DX2                !
 ! D116  D(6,8,9,38)          -178.8803         estimate D2E/DX2                !
 ! D117  D(11,8,9,10)         -178.7818         estimate D2E/DX2                !
 ! D118  D(11,8,9,38)            0.8326         estimate D2E/DX2                !
 ! D119  D(6,8,11,12)           50.3202         estimate D2E/DX2                !
 ! D120  D(6,8,11,41)          172.4081         estimate D2E/DX2                !
 ! D121  D(6,8,11,42)          -71.9756         estimate D2E/DX2                !
 ! D122  D(9,8,11,12)         -129.4096         estimate D2E/DX2                !
 ! D123  D(9,8,11,41)           -7.3216         estimate D2E/DX2                !
 ! D124  D(9,8,11,42)          108.2947         estimate D2E/DX2                !
 ! D125  D(8,9,10,4)            13.2708         estimate D2E/DX2                !
 ! D126  D(8,9,10,39)          134.8696         estimate D2E/DX2                !
 ! D127  D(8,9,10,40)         -109.7393         estimate D2E/DX2                !
 ! D128  D(38,9,10,4)         -166.3593         estimate D2E/DX2                !
 ! D129  D(38,9,10,39)         -44.7605         estimate D2E/DX2                !
 ! D130  D(38,9,10,40)          70.6306         estimate D2E/DX2                !
 ! D131  D(8,11,12,13)        -173.3238         estimate D2E/DX2                !
 ! D132  D(8,11,12,14)         -53.3078         estimate D2E/DX2                !
 ! D133  D(8,11,12,43)          68.0997         estimate D2E/DX2                !
 ! D134  D(41,11,12,13)         63.0395         estimate D2E/DX2                !
 ! D135  D(41,11,12,14)       -176.9445         estimate D2E/DX2                !
 ! D136  D(41,11,12,43)        -55.5369         estimate D2E/DX2                !
 ! D137  D(42,11,12,13)        -51.1208         estimate D2E/DX2                !
 ! D138  D(42,11,12,14)         68.8952         estimate D2E/DX2                !
 ! D139  D(42,11,12,43)       -169.6973         estimate D2E/DX2                !
 ! D140  D(11,12,13,44)        -60.5675         estimate D2E/DX2                !
 ! D141  D(14,12,13,44)        177.8559         estimate D2E/DX2                !
 ! D142  D(43,12,13,44)         59.4938         estimate D2E/DX2                !
 ! D143  D(11,12,14,15)         56.0987         estimate D2E/DX2                !
 ! D144  D(11,12,14,45)        177.5731         estimate D2E/DX2                !
 ! D145  D(11,12,14,46)        -67.0472         estimate D2E/DX2                !
 ! D146  D(13,12,14,15)        177.1241         estimate D2E/DX2                !
 ! D147  D(13,12,14,45)        -61.4015         estimate D2E/DX2                !
 ! D148  D(13,12,14,46)         53.9782         estimate D2E/DX2                !
 ! D149  D(43,12,14,15)        -65.6724         estimate D2E/DX2                !
 ! D150  D(43,12,14,45)         55.802          estimate D2E/DX2                !
 ! D151  D(43,12,14,46)        171.1818         estimate D2E/DX2                !
 ! D152  D(12,14,15,6)         -55.1717         estimate D2E/DX2                !
 ! D153  D(12,14,15,47)       -178.5699         estimate D2E/DX2                !
 ! D154  D(12,14,15,48)         66.8862         estimate D2E/DX2                !
 ! D155  D(45,14,15,6)        -176.5161         estimate D2E/DX2                !
 ! D156  D(45,14,15,47)         60.0856         estimate D2E/DX2                !
 ! D157  D(45,14,15,48)        -54.4582         estimate D2E/DX2                !
 ! D158  D(46,14,15,6)          67.7319         estimate D2E/DX2                !
 ! D159  D(46,14,15,47)        -55.6664         estimate D2E/DX2                !
 ! D160  D(46,14,15,48)       -170.2102         estimate D2E/DX2                !
 ! D161  D(5,16,17,2)          -53.6012         estimate D2E/DX2                !
 ! D162  D(5,16,17,51)          68.2944         estimate D2E/DX2                !
 ! D163  D(5,16,17,52)        -176.802          estimate D2E/DX2                !
 ! D164  D(49,16,17,2)        -175.6176         estimate D2E/DX2                !
 ! D165  D(49,16,17,51)        -53.722          estimate D2E/DX2                !
 ! D166  D(49,16,17,52)         61.1816         estimate D2E/DX2                !
 ! D167  D(50,16,17,2)          69.8934         estimate D2E/DX2                !
 ! D168  D(50,16,17,51)       -168.2109         estimate D2E/DX2                !
 ! D169  D(50,16,17,52)        -53.3073         estimate D2E/DX2                !
 ! D170  D(3,18,19,20)           9.467          estimate D2E/DX2                !
 ! D171  D(3,18,19,55)         131.2218         estimate D2E/DX2                !
 ! D172  D(3,18,19,56)        -110.6555         estimate D2E/DX2                !
 ! D173  D(53,18,19,20)       -110.2614         estimate D2E/DX2                !
 ! D174  D(53,18,19,55)         11.4934         estimate D2E/DX2                !
 ! D175  D(53,18,19,56)        129.6161         estimate D2E/DX2                !
 ! D176  D(54,18,19,20)        130.3347         estimate D2E/DX2                !
 ! D177  D(54,18,19,55)       -107.9105         estimate D2E/DX2                !
 ! D178  D(54,18,19,56)         10.2121         estimate D2E/DX2                !
 ! D179  D(18,19,20,2)          19.7108         estimate D2E/DX2                !
 ! D180  D(18,19,20,21)        149.483          estimate D2E/DX2                !
 ! D181  D(18,19,20,57)        -93.5194         estimate D2E/DX2                !
 ! D182  D(55,19,20,2)        -100.3675         estimate D2E/DX2                !
 ! D183  D(55,19,20,21)         29.4048         estimate D2E/DX2                !
 ! D184  D(55,19,20,57)        146.4024         estimate D2E/DX2                !
 ! D185  D(56,19,20,2)         139.9748         estimate D2E/DX2                !
 ! D186  D(56,19,20,21)        -90.253          estimate D2E/DX2                !
 ! D187  D(56,19,20,57)         26.7447         estimate D2E/DX2                !
 ! D188  D(2,20,21,22)         179.4999         estimate D2E/DX2                !
 ! D189  D(2,20,21,28)         -57.4148         estimate D2E/DX2                !
 ! D190  D(2,20,21,58)          61.5168         estimate D2E/DX2                !
 ! D191  D(19,20,21,22)         59.1963         estimate D2E/DX2                !
 ! D192  D(19,20,21,28)       -177.7184         estimate D2E/DX2                !
 ! D193  D(19,20,21,58)        -58.7868         estimate D2E/DX2                !
 ! D194  D(57,20,21,22)        -57.7731         estimate D2E/DX2                !
 ! D195  D(57,20,21,28)         65.3122         estimate D2E/DX2                !
 ! D196  D(57,20,21,58)       -175.7562         estimate D2E/DX2                !
 ! D197  D(20,21,22,23)       -175.8282         estimate D2E/DX2                !
 ! D198  D(20,21,22,59)        -53.3106         estimate D2E/DX2                !
 ! D199  D(20,21,22,60)         61.9659         estimate D2E/DX2                !
 ! D200  D(28,21,22,23)         59.881          estimate D2E/DX2                !
 ! D201  D(28,21,22,59)       -177.6014         estimate D2E/DX2                !
 ! D202  D(28,21,22,60)        -62.3249         estimate D2E/DX2                !
 ! D203  D(58,21,22,23)        -57.8109         estimate D2E/DX2                !
 ! D204  D(58,21,22,59)         64.7067         estimate D2E/DX2                !
 ! D205  D(58,21,22,60)        179.9832         estimate D2E/DX2                !
 ! D206  D(20,21,28,72)         67.2462         estimate D2E/DX2                !
 ! D207  D(20,21,28,73)        -54.1488         estimate D2E/DX2                !
 ! D208  D(20,21,28,74)       -175.0823         estimate D2E/DX2                !
 ! D209  D(22,21,28,72)       -169.7662         estimate D2E/DX2                !
 ! D210  D(22,21,28,73)         68.8387         estimate D2E/DX2                !
 ! D211  D(22,21,28,74)        -52.0947         estimate D2E/DX2                !
 ! D212  D(58,21,28,72)        -51.8916         estimate D2E/DX2                !
 ! D213  D(58,21,28,73)       -173.2866         estimate D2E/DX2                !
 ! D214  D(58,21,28,74)         65.7799         estimate D2E/DX2                !
 ! D215  D(21,22,23,24)         54.5584         estimate D2E/DX2                !
 ! D216  D(21,22,23,61)        177.5029         estimate D2E/DX2                !
 ! D217  D(21,22,23,62)        -68.5909         estimate D2E/DX2                !
 ! D218  D(59,22,23,24)        -69.2492         estimate D2E/DX2                !
 ! D219  D(59,22,23,61)         53.6953         estimate D2E/DX2                !
 ! D220  D(59,22,23,62)        167.6015         estimate D2E/DX2                !
 ! D221  D(60,22,23,24)        177.2444         estimate D2E/DX2                !
 ! D222  D(60,22,23,61)        -59.8111         estimate D2E/DX2                !
 ! D223  D(60,22,23,62)         54.0951         estimate D2E/DX2                !
 ! D224  D(22,23,24,25)         56.2469         estimate D2E/DX2                !
 ! D225  D(22,23,24,63)        178.6531         estimate D2E/DX2                !
 ! D226  D(22,23,24,64)        -67.0995         estimate D2E/DX2                !
 ! D227  D(61,23,24,25)        -66.1718         estimate D2E/DX2                !
 ! D228  D(61,23,24,63)         56.2343         estimate D2E/DX2                !
 ! D229  D(61,23,24,64)        170.4817         estimate D2E/DX2                !
 ! D230  D(62,23,24,25)        179.9526         estimate D2E/DX2                !
 ! D231  D(62,23,24,63)        -57.6412         estimate D2E/DX2                !
 ! D232  D(62,23,24,64)         56.6061         estimate D2E/DX2                !
 ! D233  D(23,24,25,26)         60.3067         estimate D2E/DX2                !
 ! D234  D(23,24,25,27)       -177.3377         estimate D2E/DX2                !
 ! D235  D(23,24,25,65)        -59.9364         estimate D2E/DX2                !
 ! D236  D(63,24,25,26)        -61.4611         estimate D2E/DX2                !
 ! D237  D(63,24,25,27)         60.8945         estimate D2E/DX2                !
 ! D238  D(63,24,25,65)        178.2958         estimate D2E/DX2                !
 ! D239  D(64,24,25,26)       -176.4918         estimate D2E/DX2                !
 ! D240  D(64,24,25,27)        -54.1362         estimate D2E/DX2                !
 ! D241  D(64,24,25,65)         63.2651         estimate D2E/DX2                !
 ! D242  D(24,25,26,66)        176.7044         estimate D2E/DX2                !
 ! D243  D(24,25,26,67)        -64.1078         estimate D2E/DX2                !
 ! D244  D(24,25,26,68)         56.6839         estimate D2E/DX2                !
 ! D245  D(27,25,26,66)         54.3644         estimate D2E/DX2                !
 ! D246  D(27,25,26,67)        173.5522         estimate D2E/DX2                !
 ! D247  D(27,25,26,68)        -65.6561         estimate D2E/DX2                !
 ! D248  D(65,25,26,66)        -62.441          estimate D2E/DX2                !
 ! D249  D(65,25,26,67)         56.7468         estimate D2E/DX2                !
 ! D250  D(65,25,26,68)        177.5385         estimate D2E/DX2                !
 ! D251  D(24,25,27,69)        -62.1188         estimate D2E/DX2                !
 ! D252  D(24,25,27,70)         58.182          estimate D2E/DX2                !
 ! D253  D(24,25,27,71)        177.6358         estimate D2E/DX2                !
 ! D254  D(26,25,27,69)         61.8006         estimate D2E/DX2                !
 ! D255  D(26,25,27,70)       -177.8985         estimate D2E/DX2                !
 ! D256  D(26,25,27,71)        -58.4448         estimate D2E/DX2                !
 ! D257  D(65,25,27,69)        179.2158         estimate D2E/DX2                !
 ! D258  D(65,25,27,70)        -60.4834         estimate D2E/DX2                !
 ! D259  D(65,25,27,71)         58.9704         estimate D2E/DX2                !
 --------------------------------------------------------------------------------
 Trust Radius=3.00D-01 FncErr=1.00D-07 GrdErr=1.00D-06 EigMax=2.50D+02 EigMin=1.00D-04
 Number of steps in this run=    444 maximum allowed number of steps=    444.
 GradGradGradGradGradGradGradGradGradGradGradGradGradGradGradGradGradGrad

 Leave Link  103 at Mon Jul 28 18:34:52 2025, MaxMem=  1073741824 cpu:               0.1 elap:               0.0
 (Enter /app/gaussian/g16/l202.exe)
 Stoichiometry    C27H46O
 Framework group  C1[X(C27H46O)]
 Deg. of freedom   216
 Full point group                 C1      NOp   1
 Largest Abelian subgroup         C1      NOp   1
 Largest concise Abelian subgroup C1      NOp   1
                         Standard orientation:                         
 ---------------------------------------------------------------------
 Center     Atomic      Atomic             Coordinates (Angstroms)
 Number     Number       Type             X           Y           Z
 ---------------------------------------------------------------------
      1          6           0       -0.989468   -0.312155    1.417155
      2          6           0       -0.746589   -0.408295   -0.108149
      3          6           0        0.083459    0.768246   -0.678973
      4          6           0        1.477538    0.909455   -0.055663
      5          6           0        2.279609   -0.403395   -0.271260
      6          6           0        3.713916   -0.325543    0.390227
      7          6           0        3.634881   -0.482508    1.927818
      8          6           0        4.380981    1.024542    0.084096
      9          6           0        3.704056    2.080836   -0.400988
     10          6           0        2.232691    2.097274   -0.673116
     11          6           0        5.867740    1.128669    0.347467
     12          6           0        6.647955   -0.022640   -0.288856
     13          8           0        8.015317    0.031159    0.112600
     14          6           0        6.074861   -1.370729    0.134678
     15          6           0        4.587431   -1.472173   -0.201534
     16          6           0        1.466284   -1.660789    0.126621
     17          6           0        0.038898   -1.688586   -0.447943
     18          6           0       -0.856920    1.959150   -0.591576
     19          6           0       -2.235729    1.358812   -0.889992
     20          6           0       -2.075990   -0.192082   -0.898973
     21          6           0       -3.378639   -0.911598   -0.434634
     22          6           0       -4.559232   -0.528932   -1.368866
     23          6           0       -5.941066   -1.078642   -0.987226
     24          6           0       -6.413792   -0.762607    0.436625
     25          6           0       -6.455542    0.731074    0.810566
     26          6           0       -7.400086    1.529971   -0.088012
     27          6           0       -6.880284    0.885227    2.273549
     28          6           0       -3.214906   -2.433434   -0.386199
     29          1           0       -1.516331   -1.197541    1.786763
     30          1           0       -0.061039   -0.240166    1.989619
     31          1           0       -1.595392    0.558001    1.688346
     32          1           0        0.239833    0.582375   -1.755336
     33          1           0        1.374832    1.104235    1.017907
     34          1           0        2.433684   -0.487237   -1.359509
     35          1           0        4.604918   -0.329773    2.412637
     36          1           0        2.942304    0.237859    2.375150
     37          1           0        3.307634   -1.487000    2.215197
     38          1           0        4.229151    3.009204   -0.617658
     39          1           0        1.814222    3.031455   -0.279367
     40          1           0        2.092928    2.120644   -1.761039
     41          1           0        6.275365    2.077658   -0.024492
     42          1           0        6.050560    1.149093    1.429217
     43          1           0        6.618302    0.060481   -1.382309
     44          1           0        8.375037    0.881119   -0.194476
     45          1           0        6.623839   -2.176314   -0.368679
     46          1           0        6.240897   -1.533255    1.206826
     47          1           0        4.224508   -2.446565    0.146670
     48          1           0        4.490262   -1.479957   -1.295854
     49          1           0        1.985765   -2.561283   -0.219984
     50          1           0        1.398270   -1.747545    1.214897
     51          1           0        0.099364   -1.815460   -1.536694
     52          1           0       -0.461932   -2.580471   -0.062898
     53          1           0       -0.842874    2.411009    0.406557
     54          1           0       -0.599943    2.742598   -1.311874
     55          1           0       -2.950239    1.693905   -0.129519
     56          1           0       -2.601446    1.706774   -1.862747
     57          1           0       -1.895239   -0.491857   -1.942771
     58          1           0       -3.618355   -0.566776    0.577644
     59          1           0       -4.645813    0.560712   -1.434211
     60          1           0       -4.329908   -0.869583   -2.387323
     61          1           0       -6.674529   -0.692037   -1.705497
     62          1           0       -5.955706   -2.165827   -1.126233
     63          1           0       -7.416820   -1.191753    0.561568
     64          1           0       -5.772426   -1.294592    1.149991
     65          1           0       -5.449904    1.156816    0.716630
     66          1           0       -7.453578    2.574417    0.237636
     67          1           0       -7.056288    1.532157   -1.126656
     68          1           0       -8.414134    1.117293   -0.064833
     69          1           0       -7.888572    0.490744    2.439099
     70          1           0       -6.192712    0.349609    2.936592
     71          1           0       -6.875700    1.939055    2.571343
     72          1           0       -2.515238   -2.733224    0.395959
     73          1           0       -2.858218   -2.825134   -1.344354
     74          1           0       -4.154218   -2.938042   -0.143783
 ---------------------------------------------------------------------
 Rotational constants (GHZ):           0.5304771           0.0616292           0.0593695
 Leave Link  202 at Mon Jul 28 18:34:52 2025, MaxMem=  1073741824 cpu:               0.1 elap:               0.0
 (Enter /app/gaussian/g16/l301.exe)
 Standard basis: 6-31+G (6D, 7F)
 Ernie: Thresh=  0.10000D-02 Tol=  0.10000D-05 Strict=F.
 There are   456 symmetry adapted cartesian basis functions of A   symmetry.
 There are   456 symmetry adapted basis functions of A   symmetry.
   456 basis functions,   912 primitive gaussians,   456 cartesian basis functions
   108 alpha electrons      108 beta electrons
       nuclear repulsion energy      2830.2517558188 Hartrees.
 IExCor=  402 DFT=T Ex+Corr=B3LYP ExCW=0 ScaHFX=  0.200000
 ScaDFX=  0.800000  0.720000  1.000000  0.810000 ScalE2=  1.000000  1.000000
 IRadAn=      5 IRanWt=     -1 IRanGd=            0 ICorTp=0 IEmpDi=  4
 NAtoms=   74 NActive=   74 NUniq=   74 SFac= 1.00D+00 NAtFMM=   60 NAOKFM=T Big=T
 Integral buffers will be    131072 words long.
 Raffenetti 2 integral format.
 Two-electron integral symmetry is turned on.
 Leave Link  301 at Mon Jul 28 18:34:52 2025, MaxMem=  1073741824 cpu:               0.4 elap:               0.1
 (Enter /app/gaussian/g16/l302.exe)
 NPDir=0 NMtPBC=     1 NCelOv=     1 NCel=       1 NClECP=     1 NCelD=      1
         NCelK=      1 NCelE2=     1 NClLst=     1 CellRange=     0.0.
 One-electron integrals computed using PRISM.
 One-electron integral symmetry used in STVInt
 NBasis=   456 RedAO= T EigKep=  1.15D-06  NBF=   456
 NBsUse=   454 1.00D-06 EigRej=  9.79D-07 NBFU=   454
 Precomputing XC quadrature grid using
 IXCGrd= 4 IRadAn=           5 IRanWt=          -1 IRanGd=           0 AccXCQ= 0.00D+00.
 Generated NRdTot=       0 NPtTot=           0 NUsed=           0 NTot=          32
 NSgBfM=   442   441   441   441   442 MxSgAt=    74 MxSgA2=    74.
 Leave Link  302 at Mon Jul 28 18:34:53 2025, MaxMem=  1073741824 cpu:              11.5 elap:               1.5
 (Enter /app/gaussian/g16/l303.exe)
 DipDrv:  MaxL=1.
 Leave Link  303 at Mon Jul 28 18:34:53 2025, MaxMem=  1073741824 cpu:               0.5 elap:               0.1
 (Enter /app/gaussian/g16/l401.exe)
 ExpMin= 4.38D-02 ExpMax= 5.48D+03 ExpMxC= 8.25D+02 IAcc=3 IRadAn=         5 AccDes= 0.00D+00
 Harris functional with IExCor=  402 and IRadAn=       5 diagonalized for initial guess.
 HarFok:  IExCor=  402 AccDes= 0.00D+00 IRadAn=         5 IDoV= 1 UseB2=F ITyADJ=14
 ICtDFT=  3500011 ScaDFX=  1.000000  1.000000  1.000000  1.000000
 FoFCou: FMM=F IPFlag=           0 FMFlag=      100000 FMFlg1=        2001
         NFxFlg=           0 DoJE=T BraDBF=F KetDBF=T FulRan=T
         wScrn=  0.000000 ICntrl=       500 IOpCl=  0 I1Cent=   200000004 NGrid=           0
         NMat0=    1 NMatS0=      1 NMatT0=    0 NMatD0=    1 NMtDS0=    0 NMtDT0=    0
 Petite list used in FoFCou.
 Harris En= -1131.64666519701    
 JPrj=0 DoOrth=F DoCkMO=F.
 Leave Link  401 at Mon Jul 28 18:35:02 2025, MaxMem=  1073741824 cpu:              71.7 elap:               9.0
 (Enter /app/gaussian/g16/l502.exe)
 Integral symmetry usage will be decided dynamically.
 Closed shell SCF:
 Using DIIS extrapolation, IDIIS=  1040.
 NGot=  1073741824 LenX=  1073314746 LenY=  1073106354
 Requested convergence on RMS density matrix=1.00D-08 within 128 cycles.
 Requested convergence on MAX density matrix=1.00D-06.
 Requested convergence on             energy=1.00D-06.
 No special actions if energy rises.
 Fock matrices will be formed incrementally for  20 cycles.

 Cycle   1  Pass 1  IDiag  1:
 FoFJK:  IHMeth= 1 ICntrl=       0 DoSepK=F KAlg= 0 I1Cent=           0 FoldK=F
 IRaf= 990000000 NMat=       1 IRICut=       1 DoRegI=T DoRafI=F ISym2E= 0 IDoP0=0 IntGTp=1.
 FoFCou: FMM=T IPFlag=           0 FMFlag=      100000 FMFlg1=        2001
         NFxFlg=           0 DoJE=F BraDBF=F KetDBF=F FulRan=T
         wScrn=  0.000000 ICntrl=         0 IOpCl=  0 I1Cent=           0 NGrid=           0
         NMat0=    1 NMatS0=      1 NMatT0=    0 NMatD0=    1 NMtDS0=    0 NMtDT0=    0
 Symmetry not used in FoFCou.
 FMM levels:  10  Number of levels for PrismC:   9
 E= -1130.66101744041    
 DIIS: error= 1.92D-02 at cycle   1 NSaved=   1.
 NSaved= 1 IEnMin= 1 EnMin= -1130.66101744041     IErMin= 1 ErrMin= 1.92D-02
 ErrMax= 1.92D-02  0.00D+00 EMaxC= 1.00D-01 BMatC= 7.81D-01 BMatP= 7.81D-01
 IDIUse=3 WtCom= 8.08D-01 WtEn= 1.92D-01
 Coeff-Com:  0.100D+01
 Coeff-En:   0.100D+01
 Coeff:      0.100D+01
 Gap=     0.254 Goal=   None    Shift=    0.000
 GapD=    0.254 DampG=1.000 DampE=0.500 DampFc=0.5000 IDamp=-1.
 Damping current iteration by 5.00D-01
 RMSDP=1.94D-01 MaxDP=2.05D+01              OVMax= 1.82D-01

 Cycle   2  Pass 1  IDiag  1:
 RMSU=  7.23D-02    CP:  1.70D+00
 E= -1131.01573402847     Delta-E=       -0.354716588061 Rises=F Damp=T
 DIIS: error= 3.39D-03 at cycle   2 NSaved=   2.
 NSaved= 2 IEnMin= 2 EnMin= -1131.01573402847     IErMin= 2 ErrMin= 3.39D-03
 ErrMax= 3.39D-03  0.00D+00 EMaxC= 1.00D-01 BMatC= 3.65D-02 BMatP= 7.81D-01
 IDIUse=3 WtCom= 9.66D-01 WtEn= 3.39D-02
 Coeff-Com:  0.107D+00 0.893D+00
 Coeff-En:   0.200D+00 0.800D+00
 Coeff:      0.111D+00 0.889D+00
 Gap=     0.279 Goal=   None    Shift=    0.000
 RMSDP=1.04D-01 MaxDP=1.18D+01 DE=-3.55D-01 OVMax= 1.12D-01

 Cycle   3  Pass 1  IDiag  1:
 RMSU=  1.63D-02    CP:  8.37D-01  1.01D-01
 E= -1131.53760653781     Delta-E=       -0.521872509340 Rises=F Damp=F
 DIIS: error= 3.30D-03 at cycle   3 NSaved=   3.
 NSaved= 3 IEnMin= 3 EnMin= -1131.53760653781     IErMin= 3 ErrMin= 3.30D-03
 ErrMax= 3.30D-03  0.00D+00 EMaxC= 1.00D-01 BMatC= 1.20D-02 BMatP= 3.65D-02
 IDIUse=3 WtCom= 9.67D-01 WtEn= 3.30D-02
 Coeff-Com:  0.806D-02 0.343D+00 0.649D+00
 Coeff-En:   0.000D+00 0.000D+00 0.100D+01
 Coeff:      0.779D-02 0.332D+00 0.660D+00
 Gap=     0.234 Goal=   None    Shift=    0.000
 RMSDP=9.21D-03 MaxDP=7.56D-01 DE=-5.22D-01 OVMax= 3.95D-02

 Cycle   4  Pass 1  IDiag  1:
 RMSU=  6.31D-03    CP:  8.71D-01  1.75D-01  8.39D-01
 E= -1131.54569637064     Delta-E=       -0.008089832830 Rises=F Damp=F
 DIIS: error= 2.52D-03 at cycle   4 NSaved=   4.
 NSaved= 4 IEnMin= 4 EnMin= -1131.54569637064     IErMin= 4 ErrMin= 2.52D-03
 ErrMax= 2.52D-03  0.00D+00 EMaxC= 1.00D-01 BMatC= 4.43D-03 BMatP= 1.20D-02
 IDIUse=3 WtCom= 9.75D-01 WtEn= 2.52D-02
 Coeff-Com: -0.115D-01 0.839D-01 0.397D+00 0.531D+00
 Coeff-En:   0.000D+00 0.000D+00 0.253D+00 0.747D+00
 Coeff:     -0.112D-01 0.818D-01 0.393D+00 0.536D+00
 Gap=     0.229 Goal=   None    Shift=    0.000
 RMSDP=2.32D-03 MaxDP=2.18D-01 DE=-8.09D-03 OVMax= 2.57D-02

 Cycle   5  Pass 1  IDiag  1:
 RMSU=  1.78D-03    CP:  8.66D-01  1.70D-01  8.13D-01  7.96D-01
 E= -1131.54967979113     Delta-E=       -0.003983420485 Rises=F Damp=F
 DIIS: error= 8.34D-04 at cycle   5 NSaved=   5.
 NSaved= 5 IEnMin= 5 EnMin= -1131.54967979113     IErMin= 5 ErrMin= 8.34D-04
 ErrMax= 8.34D-04  0.00D+00 EMaxC= 1.00D-01 BMatC= 1.80D-04 BMatP= 4.43D-03
 IDIUse=3 WtCom= 9.92D-01 WtEn= 8.34D-03
 Coeff-Com: -0.581D-02 0.254D-01 0.163D+00 0.270D+00 0.547D+00
 Coeff-En:   0.000D+00 0.000D+00 0.000D+00 0.000D+00 0.100D+01
 Coeff:     -0.576D-02 0.252D-01 0.162D+00 0.268D+00 0.551D+00
 Gap=     0.229 Goal=   None    Shift=    0.000
 RMSDP=8.62D-04 MaxDP=8.42D-02 DE=-3.98D-03 OVMax= 8.63D-03

 Cycle   6  Pass 1  IDiag  1:
 RMSU=  4.73D-04    CP:  8.63D-01  1.64D-01  8.37D-01  7.62D-01  8.52D-01
 E= -1131.54983627279     Delta-E=       -0.000156481664 Rises=F Damp=F
 DIIS: error= 3.55D-04 at cycle   6 NSaved=   6.
 NSaved= 6 IEnMin= 6 EnMin= -1131.54983627279     IErMin= 6 ErrMin= 3.55D-04
 ErrMax= 3.55D-04  0.00D+00 EMaxC= 1.00D-01 BMatC= 3.32D-05 BMatP= 1.80D-04
 IDIUse=3 WtCom= 9.96D-01 WtEn= 3.55D-03
 Coeff-Com: -0.166D-02 0.254D-02 0.376D-01 0.823D-01 0.334D+00 0.545D+00
 Coeff-En:   0.000D+00 0.000D+00 0.000D+00 0.000D+00 0.156D+00 0.844D+00
 Coeff:     -0.166D-02 0.253D-02 0.374D-01 0.820D-01 0.333D+00 0.546D+00
 Gap=     0.229 Goal=   None    Shift=    0.000
 RMSDP=2.29D-04 MaxDP=1.89D-02 DE=-1.56D-04 OVMax= 3.12D-03

 Cycle   7  Pass 1  IDiag  1:
 RMSU=  1.58D-04    CP:  8.63D-01  1.64D-01  8.39D-01  7.56D-01  8.44D-01
                    CP:  6.71D-01
 E= -1131.54986975702     Delta-E=       -0.000033484233 Rises=F Damp=F
 DIIS: error= 6.66D-05 at cycle   7 NSaved=   7.
 NSaved= 7 IEnMin= 7 EnMin= -1131.54986975702     IErMin= 7 ErrMin= 6.66D-05
 ErrMax= 6.66D-05  0.00D+00 EMaxC= 1.00D-01 BMatC= 2.45D-06 BMatP= 3.32D-05
 IDIUse=1 WtCom= 1.00D+00 WtEn= 0.00D+00
 Coeff-Com: -0.646D-03-0.495D-07 0.135D-01 0.345D-01 0.167D+00 0.323D+00
 Coeff-Com:  0.463D+00
 Coeff:     -0.646D-03-0.495D-07 0.135D-01 0.345D-01 0.167D+00 0.323D+00
 Coeff:      0.463D+00
 Gap=     0.229 Goal=   None    Shift=    0.000
 RMSDP=6.62D-05 MaxDP=4.53D-03 DE=-3.35D-05 OVMax= 5.32D-04

 Cycle   8  Pass 1  IDiag  1:
 RMSU=  4.00D-05    CP:  8.63D-01  1.64D-01  8.37D-01  7.58D-01  8.54D-01
                    CP:  6.80D-01  7.75D-01
 E= -1131.54987209804     Delta-E=       -0.000002341013 Rises=F Damp=F
 DIIS: error= 1.10D-05 at cycle   8 NSaved=   8.
 NSaved= 8 IEnMin= 8 EnMin= -1131.54987209804     IErMin= 8 ErrMin= 1.10D-05
 ErrMax= 1.10D-05  0.00D+00 EMaxC= 1.00D-01 BMatC= 9.02D-08 BMatP= 2.45D-06
 IDIUse=1 WtCom= 1.00D+00 WtEn= 0.00D+00
 Coeff-Com: -0.743D-04-0.276D-03 0.165D-02 0.615D-02 0.380D-01 0.863D-01
 Coeff-Com:  0.205D+00 0.663D+00
 Coeff:     -0.743D-04-0.276D-03 0.165D-02 0.615D-02 0.380D-01 0.863D-01
 Coeff:      0.205D+00 0.663D+00
 Gap=     0.229 Goal=   None    Shift=    0.000
 RMSDP=1.74D-05 MaxDP=1.15D-03 DE=-2.34D-06 OVMax= 5.52D-05

 Cycle   9  Pass 1  IDiag  1:
 RMSU=  1.25D-05    CP:  8.63D-01  1.64D-01  8.37D-01  7.58D-01  8.53D-01
                    CP:  6.73D-01  7.26D-01  9.25D-01
 E= -1131.54987217796     Delta-E=       -0.000000079917 Rises=F Damp=F
 DIIS: error= 2.87D-06 at cycle   9 NSaved=   9.
 NSaved= 9 IEnMin= 9 EnMin= -1131.54987217796     IErMin= 9 ErrMin= 2.87D-06
 ErrMax= 2.87D-06  0.00D+00 EMaxC= 1.00D-01 BMatC= 7.20D-09 BMatP= 9.02D-08
 IDIUse=1 WtCom= 1.00D+00 WtEn= 0.00D+00
 Coeff-Com:  0.252D-05-0.129D-03 0.750D-04 0.104D-02 0.840D-02 0.222D-01
 Coeff-Com:  0.697D-01 0.316D+00 0.583D+00
 Coeff:      0.252D-05-0.129D-03 0.750D-04 0.104D-02 0.840D-02 0.222D-01
 Coeff:      0.697D-01 0.316D+00 0.583D+00
 Gap=     0.229 Goal=   None    Shift=    0.000
 RMSDP=6.24D-06 MaxDP=4.77D-04 DE=-7.99D-08 OVMax= 1.21D-05

 Cycle  10  Pass 1  IDiag  1:
 RMSU=  4.52D-06    CP:  8.63D-01  1.64D-01  8.37D-01  7.59D-01  8.53D-01
                    CP:  6.70D-01  7.33D-01  9.17D-01  8.50D-01
 E= -1131.54987218523     Delta-E=       -0.000000007274 Rises=F Damp=F
 DIIS: error= 9.01D-07 at cycle  10 NSaved=  10.
 NSaved=10 IEnMin=10 EnMin= -1131.54987218523     IErMin=10 ErrMin= 9.01D-07
 ErrMax= 9.01D-07  0.00D+00 EMaxC= 1.00D-01 BMatC= 5.75D-10 BMatP= 7.20D-09
 IDIUse=1 WtCom= 1.00D+00 WtEn= 0.00D+00
 Coeff-Com:  0.834D-05-0.279D-04-0.118D-03-0.132D-03-0.567D-04 0.123D-02
 Coeff-Com:  0.101D-01 0.721D-01 0.264D+00 0.653D+00
 Coeff:      0.834D-05-0.279D-04-0.118D-03-0.132D-03-0.567D-04 0.123D-02
 Coeff:      0.101D-01 0.721D-01 0.264D+00 0.653D+00
 Gap=     0.229 Goal=   None    Shift=    0.000
 RMSDP=2.19D-06 MaxDP=1.86D-04 DE=-7.27D-09 OVMax= 3.71D-06

 Cycle  11  Pass 1  IDiag  1:
 RMSU=  9.67D-07    CP:  8.63D-01  1.64D-01  8.37D-01  7.58D-01  8.53D-01
                    CP:  6.71D-01  7.36D-01  9.13D-01  8.30D-01  8.75D-01
 E= -1131.54987218587     Delta-E=       -0.000000000645 Rises=F Damp=F
 DIIS: error= 1.62D-07 at cycle  11 NSaved=  11.
 NSaved=11 IEnMin=11 EnMin= -1131.54987218587     IErMin=11 ErrMin= 1.62D-07
 ErrMax= 1.62D-07  0.00D+00 EMaxC= 1.00D-01 BMatC= 4.21D-11 BMatP= 5.75D-10
 IDIUse=1 WtCom= 1.00D+00 WtEn= 0.00D+00
 Coeff-Com:  0.316D-05-0.282D-05-0.564D-04-0.128D-03-0.628D-03-0.101D-02
 Coeff-Com: -0.367D-03 0.955D-02 0.763D-01 0.288D+00 0.628D+00
 Coeff:      0.316D-05-0.282D-05-0.564D-04-0.128D-03-0.628D-03-0.101D-02
 Coeff:     -0.367D-03 0.955D-02 0.763D-01 0.288D+00 0.628D+00
 Gap=     0.229 Goal=   None    Shift=    0.000
 RMSDP=5.01D-07 MaxDP=4.28D-05 DE=-6.45D-10 OVMax= 1.06D-06

 Cycle  12  Pass 1  IDiag  1:
 RMSU=  2.70D-07    CP:  8.63D-01  1.64D-01  8.37D-01  7.58D-01  8.53D-01
                    CP:  6.71D-01  7.36D-01  9.20D-01  8.33D-01  8.46D-01
                    CP:  8.60D-01
 E= -1131.54987218600     Delta-E=       -0.000000000128 Rises=F Damp=F
 DIIS: error= 4.08D-08 at cycle  12 NSaved=  12.
 NSaved=12 IEnMin=12 EnMin= -1131.54987218600     IErMin=12 ErrMin= 4.08D-08
 ErrMax= 4.08D-08  0.00D+00 EMaxC= 1.00D-01 BMatC= 1.86D-12 BMatP= 4.21D-11
 IDIUse=1 WtCom= 1.00D+00 WtEn= 0.00D+00
 Coeff-Com:  0.502D-06 0.723D-06-0.144D-04-0.388D-04-0.237D-03-0.438D-03
 Coeff-Com: -0.680D-03-0.627D-03 0.136D-01 0.696D-01 0.234D+00 0.685D+00
 Coeff:      0.502D-06 0.723D-06-0.144D-04-0.388D-04-0.237D-03-0.438D-03
 Coeff:     -0.680D-03-0.627D-03 0.136D-01 0.696D-01 0.234D+00 0.685D+00
 Gap=     0.229 Goal=   None    Shift=    0.000
 RMSDP=9.53D-08 MaxDP=6.48D-06 DE=-1.28D-10 OVMax= 1.92D-07

 Cycle  13  Pass 1  IDiag  1:
 RMSU=  6.04D-08    CP:  8.63D-01  1.64D-01  8.37D-01  7.58D-01  8.53D-01
                    CP:  6.71D-01  7.36D-01  9.20D-01  8.37D-01  8.48D-01
                    CP:  8.59D-01  8.12D-01
 E= -1131.54987218593     Delta-E=        0.000000000070 Rises=F Damp=F
 DIIS: error= 1.97D-08 at cycle  13 NSaved=  13.
 NSaved=13 IEnMin=12 EnMin= -1131.54987218600     IErMin=13 ErrMin= 1.97D-08
 ErrMax= 1.97D-08  0.00D+00 EMaxC= 1.00D-01 BMatC= 2.67D-13 BMatP= 1.86D-12
 IDIUse=1 WtCom= 1.00D+00 WtEn= 0.00D+00
 Coeff-Com:  0.771D-08 0.540D-06-0.371D-05-0.108D-04-0.773D-04-0.147D-03
 Coeff-Com: -0.297D-03-0.873D-03 0.194D-02 0.159D-01 0.746D-01 0.345D+00
 Coeff-Com:  0.564D+00
 Coeff:      0.771D-08 0.540D-06-0.371D-05-0.108D-04-0.773D-04-0.147D-03
 Coeff:     -0.297D-03-0.873D-03 0.194D-02 0.159D-01 0.746D-01 0.345D+00
 Coeff:      0.564D+00
 Gap=     0.229 Goal=   None    Shift=    0.000
 RMSDP=3.22D-08 MaxDP=2.03D-06 DE= 7.00D-11 OVMax= 6.53D-08

 Cycle  14  Pass 1  IDiag  1:
 RMSU=  2.20D-08    CP:  8.63D-01  1.64D-01  8.37D-01  7.58D-01  8.53D-01
                    CP:  6.71D-01  7.36D-01  9.20D-01  8.37D-01  8.51D-01
                    CP:  8.54D-01  8.14D-01  7.93D-01
 E= -1131.54987218608     Delta-E=       -0.000000000152 Rises=F Damp=F
 DIIS: error= 2.44D-09 at cycle  14 NSaved=  14.
 NSaved=14 IEnMin=14 EnMin= -1131.54987218608     IErMin=14 ErrMin= 2.44D-09
 ErrMax= 2.44D-09  0.00D+00 EMaxC= 1.00D-01 BMatC= 7.44D-15 BMatP= 2.67D-13
 IDIUse=1 WtCom= 1.00D+00 WtEn= 0.00D+00
 Coeff-Com: -0.407D-07 0.139D-06-0.432D-06-0.125D-05-0.120D-04-0.216D-04
 Coeff-Com: -0.568D-04-0.250D-03-0.191D-03 0.842D-03 0.101D-01 0.722D-01
 Coeff-Com:  0.193D+00 0.724D+00
 Coeff:     -0.407D-07 0.139D-06-0.432D-06-0.125D-05-0.120D-04-0.216D-04
 Coeff:     -0.568D-04-0.250D-03-0.191D-03 0.842D-03 0.101D-01 0.722D-01
 Coeff:      0.193D+00 0.724D+00
 Gap=     0.229 Goal=   None    Shift=    0.000
 RMSDP=8.23D-09 MaxDP=6.12D-07 DE=-1.52D-10 OVMax= 1.47D-08

 SCF Done:  E(RB3LYP) =  -1131.54987219     A.U. after   14 cycles
            NFock= 14  Conv=0.82D-08     -V/T= 2.0053
 KE= 1.125589682029D+03 PE=-8.282789982251D+03 EE= 3.195398672217D+03
 Leave Link  502 at Mon Jul 28 18:39:41 2025, MaxMem=  1073741824 cpu:            2222.9 elap:             278.8
 (Enter /app/gaussian/g16/l601.exe)
 Copying SCF densities to generalized density rwf, IOpCl= 0 IROHF=0.

 **********************************************************************

            Population analysis using the SCF Density.

 **********************************************************************

 Orbital symmetries:
       Occupied  (A) (A) (A) (A) (A) (A) (A) (A) (A) (A) (A) (A)
                 (A) (A) (A) (A) (A) (A) (A) (A) (A) (A) (A) (A)
                 (A) (A) (A) (A) (A) (A) (A) (A) (A) (A) (A) (A)
                 (A) (A) (A) (A) (A) (A) (A) (A) (A) (A) (A) (A)
                 (A) (A) (A) (A) (A) (A) (A) (A) (A) (A) (A) (A)
                 (A) (A) (A) (A) (A) (A) (A) (A) (A) (A) (A) (A)
                 (A) (A) (A) (A) (A) (A) (A) (A) (A) (A) (A) (A)
                 (A) (A) (A) (A) (A) (A) (A) (A) (A) (A) (A) (A)
                 (A) (A) (A) (A) (A) (A) (A) (A) (A) (A) (A) (A)
       Virtual   (A) (A) (A) (A) (A) (A) (A) (A) (A) (A) (A) (A)
                 (A) (A) (A) (A) (A) (A) (A) (A) (A) (A) (A) (A)
                 (A) (A) (A) (A) (A) (A) (A) (A) (A) (A) (A) (A)
                 (A) (A) (A) (A) (A) (A) (A) (A) (A) (A) (A) (A)
                 (A) (A) (A) (A) (A) (A) (A) (A) (A) (A) (A) (A)
                 (A) (A) (A) (A) (A) (A) (A) (A) (A) (A) (A) (A)
                 (A) (A) (A) (A) (A) (A) (A) (A) (A) (A) (A) (A)
                 (A) (A) (A) (A) (A) (A) (A) (A) (A) (A) (A) (A)
                 (A) (A) (A) (A) (A) (A) (A) (A) (A) (A) (A) (A)
                 (A) (A) (A) (A) (A) (A) (A) (A) (A) (A) (A) (A)
                 (A) (A) (A) (A) (A) (A) (A) (A) (A) (A) (A) (A)
                 (A) (A) (A) (A) (A) (A) (A) (A) (A) (A) (A) (A)
                 (A) (A) (A) (A) (A) (A) (A) (A) (A) (A) (A) (A)
                 (A) (A) (A) (A) (A) (A) (A) (A) (A) (A) (A) (A)
                 (A) (A) (A) (A) (A) (A) (A) (A) (A) (A) (A) (A)
                 (A) (A) (A) (A) (A) (A) (A) (A) (A) (A) (A) (A)
                 (A) (A) (A) (A) (A) (A) (A) (A) (A) (A) (A) (A)
                 (A) (A) (A) (A) (A) (A) (A) (A) (A) (A) (A) (A)
                 (A) (A) (A) (A) (A) (A) (A) (A) (A) (A) (A) (A)
                 (A) (A) (A) (A) (A) (A) (A) (A) (A) (A) (A) (A)
                 (A) (A) (A) (A) (A) (A) (A) (A) (A) (A) (A) (A)
                 (A) (A) (A) (A) (A) (A) (A) (A) (A) (A) (A) (A)
                 (A) (A) (A) (A) (A) (A) (A) (A) (A) (A) (A) (A)
                 (A) (A) (A) (A) (A) (A) (A) (A) (A) (A) (A) (A)
                 (A) (A) (A) (A) (A) (A) (A) (A) (A) (A) (A) (A)
                 (A) (A) (A) (A) (A) (A) (A) (A) (A) (A) (A) (A)
                 (A) (A) (A) (A) (A) (A) (A) (A) (A) (A) (A) (A)
                 (A) (A) (A) (A) (A) (A) (A) (A) (A) (A) (A) (A)
                 (A) (A) (A) (A) (A) (A) (A) (A) (A) (A)
 The electronic state is 1-A.
 Alpha  occ. eigenvalues --  -19.14962 -10.23528 -10.20271 -10.18927 -10.18896
 Alpha  occ. eigenvalues --  -10.18447 -10.18439 -10.18328 -10.18281 -10.18027
 Alpha  occ. eigenvalues --  -10.17994 -10.17970 -10.17843 -10.17809 -10.17583
 Alpha  occ. eigenvalues --  -10.17557 -10.17402 -10.17306 -10.17292 -10.17224
 Alpha  occ. eigenvalues --  -10.17213 -10.17107 -10.17098 -10.17005 -10.16956
 Alpha  occ. eigenvalues --  -10.16761 -10.16727 -10.16543  -1.03800  -0.87432
 Alpha  occ. eigenvalues --   -0.85501  -0.82480  -0.81049  -0.79527  -0.79112
 Alpha  occ. eigenvalues --   -0.76929  -0.75778  -0.74294  -0.72960  -0.71501
 Alpha  occ. eigenvalues --   -0.68984  -0.68698  -0.68430  -0.67726  -0.67503
 Alpha  occ. eigenvalues --   -0.63959  -0.62299  -0.61106  -0.60746  -0.58159
 Alpha  occ. eigenvalues --   -0.56717  -0.56551  -0.55127  -0.54049  -0.53665
 Alpha  occ. eigenvalues --   -0.52177  -0.49737  -0.48712  -0.48245  -0.47806
 Alpha  occ. eigenvalues --   -0.47040  -0.46904  -0.45960  -0.45200  -0.44926
 Alpha  occ. eigenvalues --   -0.43785  -0.43461  -0.43361  -0.42895  -0.42276
 Alpha  occ. eigenvalues --   -0.41910  -0.41271  -0.40893  -0.40661  -0.40358
 Alpha  occ. eigenvalues --   -0.39910  -0.39137  -0.38840  -0.38640  -0.38255
 Alpha  occ. eigenvalues --   -0.37899  -0.37787  -0.37466  -0.36815  -0.36573
 Alpha  occ. eigenvalues --   -0.36241  -0.35815  -0.35168  -0.34886  -0.34306
 Alpha  occ. eigenvalues --   -0.34023  -0.33729  -0.33565  -0.33056  -0.32555
 Alpha  occ. eigenvalues --   -0.32144  -0.31972  -0.31381  -0.31261  -0.30885
 Alpha  occ. eigenvalues --   -0.30870  -0.30478  -0.30095  -0.29351  -0.28175
 Alpha  occ. eigenvalues --   -0.27486  -0.26839  -0.23534
 Alpha virt. eigenvalues --   -0.00615  -0.00386   0.00201   0.00371   0.00581
 Alpha virt. eigenvalues --    0.01199   0.01377   0.01479   0.01902   0.02484
 Alpha virt. eigenvalues --    0.02751   0.03041   0.03363   0.03643   0.04084
 Alpha virt. eigenvalues --    0.04198   0.04792   0.04867   0.05320   0.05847
 Alpha virt. eigenvalues --    0.06047   0.06154   0.06488   0.06627   0.06976
 Alpha virt. eigenvalues --    0.07005   0.07552   0.07795   0.07919   0.08427
 Alpha virt. eigenvalues --    0.08480   0.08973   0.09160   0.09205   0.09403
 Alpha virt. eigenvalues --    0.09741   0.10259   0.10589   0.10823   0.11014
 Alpha virt. eigenvalues --    0.11195   0.11673   0.11698   0.12004   0.12348
 Alpha virt. eigenvalues --    0.12430   0.12676   0.12959   0.13142   0.13385
 Alpha virt. eigenvalues --    0.13734   0.14117   0.14466   0.14538   0.14976
 Alpha virt. eigenvalues --    0.15121   0.15363   0.15455   0.15706   0.15852
 Alpha virt. eigenvalues --    0.16342   0.16714   0.16899   0.17007   0.17379
 Alpha virt. eigenvalues --    0.17553   0.17599   0.17876   0.18288   0.18569
 Alpha virt. eigenvalues --    0.18654   0.18719   0.19069   0.19221   0.19459
 Alpha virt. eigenvalues --    0.19494   0.19900   0.20239   0.20266   0.20437
 Alpha virt. eigenvalues --    0.20484   0.20780   0.20973   0.21225   0.21308
 Alpha virt. eigenvalues --    0.21530   0.21616   0.21947   0.22100   0.22311
 Alpha virt. eigenvalues --    0.22642   0.22686   0.22853   0.23001   0.23058
 Alpha virt. eigenvalues --    0.23414   0.23643   0.23815   0.24048   0.24302
 Alpha virt. eigenvalues --    0.24416   0.24562   0.24916   0.25016   0.25200
 Alpha virt. eigenvalues --    0.25400   0.25473   0.25656   0.25925   0.26031
 Alpha virt. eigenvalues --    0.26216   0.26679   0.26829   0.27000   0.27399
 Alpha virt. eigenvalues --    0.27411   0.27659   0.27797   0.28071   0.28289
 Alpha virt. eigenvalues --    0.28494   0.28549   0.28914   0.29176   0.29612
 Alpha virt. eigenvalues --    0.29728   0.29959   0.30151   0.30510   0.30760
 Alpha virt. eigenvalues --    0.31344   0.31576   0.31704   0.31941   0.32155
 Alpha virt. eigenvalues --    0.32239   0.32412   0.32649   0.33013   0.33093
 Alpha virt. eigenvalues --    0.33580   0.33900   0.34228   0.34372   0.34542
 Alpha virt. eigenvalues --    0.34748   0.34984   0.35328   0.35386   0.35723
 Alpha virt. eigenvalues --    0.36037   0.36251   0.36451   0.36684   0.37226
 Alpha virt. eigenvalues --    0.37869   0.38802   0.39178   0.39349   0.39546
 Alpha virt. eigenvalues --    0.39690   0.40074   0.40164   0.40617   0.40978
 Alpha virt. eigenvalues --    0.41540   0.41972   0.42289   0.42697   0.42870
 Alpha virt. eigenvalues --    0.43385   0.43933   0.44078   0.44716   0.44948
 Alpha virt. eigenvalues --    0.45512   0.45782   0.47064   0.47389   0.48010
 Alpha virt. eigenvalues --    0.49069   0.50064   0.50420   0.52028   0.53058
 Alpha virt. eigenvalues --    0.54546   0.56188   0.58004   0.65689   0.66745
 Alpha virt. eigenvalues --    0.67864   0.68701   0.69466   0.69502   0.70016
 Alpha virt. eigenvalues --    0.70809   0.71154   0.71766   0.72037   0.72402
 Alpha virt. eigenvalues --    0.72473   0.72870   0.73255   0.74032   0.74186
 Alpha virt. eigenvalues --    0.74803   0.74953   0.75671   0.76150   0.76561
 Alpha virt. eigenvalues --    0.76982   0.77308   0.78098   0.78638   0.78962
 Alpha virt. eigenvalues --    0.79155   0.79312   0.79773   0.80664   0.80921
 Alpha virt. eigenvalues --    0.81836   0.82061   0.82333   0.83410   0.83860
 Alpha virt. eigenvalues --    0.84431   0.84732   0.84860   0.85556   0.86523
 Alpha virt. eigenvalues --    0.86768   0.87407   0.88221   0.88415   0.88962
 Alpha virt. eigenvalues --    0.89300   0.90107   0.91156   0.93262   0.93396
 Alpha virt. eigenvalues --    0.93722   0.94494   0.94863   0.95168   0.96970
 Alpha virt. eigenvalues --    0.97504   0.97865   0.98214   0.99308   0.99657
 Alpha virt. eigenvalues --    1.00626   1.01165   1.01461   1.03174   1.03558
 Alpha virt. eigenvalues --    1.03854   1.05202   1.06306   1.07045   1.07561
 Alpha virt. eigenvalues --    1.08419   1.09094   1.09555   1.10260   1.10952
 Alpha virt. eigenvalues --    1.11197   1.11729   1.12065   1.12423   1.12806
 Alpha virt. eigenvalues --    1.13296   1.14176   1.14927   1.15117   1.16423
 Alpha virt. eigenvalues --    1.16630   1.17199   1.17557   1.18301   1.19280
 Alpha virt. eigenvalues --    1.19421   1.20188   1.20605   1.21080   1.21228
 Alpha virt. eigenvalues --    1.22142   1.22575   1.23230   1.23396   1.24177
 Alpha virt. eigenvalues --    1.24763   1.25051   1.25311   1.26297   1.26601
 Alpha virt. eigenvalues --    1.27082   1.27706   1.28741   1.29089   1.30036
 Alpha virt. eigenvalues --    1.30493   1.31094   1.31477   1.32363   1.32941
 Alpha virt. eigenvalues --    1.33558   1.34870   1.35044   1.36647   1.37010
 Alpha virt. eigenvalues --    1.38367   1.39002   1.39523   1.41200   1.41771
 Alpha virt. eigenvalues --    1.42648   1.43503   1.43752   1.45640   1.47460
 Alpha virt. eigenvalues --    1.50601   1.51098   1.51969   1.54312   1.55341
 Alpha virt. eigenvalues --    1.56717   1.57217   1.58274   1.62114   1.65898
 Alpha virt. eigenvalues --    1.68179   1.70528   1.71508   1.74204   1.77830
 Alpha virt. eigenvalues --    1.80841   1.84196   1.84519   1.90514   1.95515
 Alpha virt. eigenvalues --    1.99588   2.06818   2.15292   2.21140   2.25763
 Alpha virt. eigenvalues --    2.28028
          Condensed to atoms (all electrons):
 Mulliken charges:
               1
     1  C   -0.685400
     2  C   -0.662669
     3  C   -0.323009
     4  C    0.280065
     5  C   -0.187156
     6  C   -0.236084
     7  C   -0.641366
     8  C    0.830444
     9  C   -0.764440
    10  C   -0.490353
    11  C   -0.249476
    12  C   -0.329728
    13  O   -0.477349
    14  C   -0.634232
    15  C   -0.082299
    16  C   -0.546351
    17  C   -0.436260
    18  C   -0.829665
    19  C   -0.382039
    20  C    0.190995
    21  C    0.042057
    22  C    0.065244
    23  C   -0.768825
    24  C   -0.238779
    25  C   -0.052216
    26  C   -0.589272
    27  C   -0.703470
    28  C   -0.674224
    29  H    0.213021
    30  H    0.211592
    31  H    0.219902
    32  H    0.214518
    33  H    0.204208
    34  H    0.205550
    35  H    0.213918
    36  H    0.213366
    37  H    0.206411
    38  H    0.158197
    39  H    0.212382
    40  H    0.219867
    41  H    0.185543
    42  H    0.239358
    43  H    0.195151
    44  H    0.405292
    45  H    0.208876
    46  H    0.221997
    47  H    0.202991
    48  H    0.206985
    49  H    0.200155
    50  H    0.207606
    51  H    0.209145
    52  H    0.195958
    53  H    0.212258
    54  H    0.205127
    55  H    0.209202
    56  H    0.205491
    57  H    0.199296
    58  H    0.215832
    59  H    0.215571
    60  H    0.197711
    61  H    0.202873
    62  H    0.199036
    63  H    0.192173
    64  H    0.198440
    65  H    0.205725
    66  H    0.188551
    67  H    0.194311
    68  H    0.197056
    69  H    0.196749
    70  H    0.186768
    71  H    0.187583
    72  H    0.199285
    73  H    0.202408
    74  H    0.192423
 Sum of Mulliken charges =  -0.00000
 Mulliken charges with hydrogens summed into heavy atoms:
               1
     1  C   -0.040885
     2  C   -0.662669
     3  C   -0.108491
     4  C    0.484273
     5  C    0.018394
     6  C   -0.236084
     7  C   -0.007671
     8  C    0.830444
     9  C   -0.606243
    10  C   -0.058105
    11  C    0.175426
    12  C   -0.134577
    13  O   -0.072058
    14  C   -0.203360
    15  C    0.327677
    16  C   -0.138590
    17  C   -0.031157
    18  C   -0.412279
    19  C    0.032653
    20  C    0.390291
    21  C    0.257889
    22  C    0.478526
    23  C   -0.366916
    24  C    0.151834
    25  C    0.153509
    26  C   -0.009354
    27  C   -0.132370
    28  C   -0.080108
 Electronic spatial extent (au):  <R**2>=          18425.1806
 Charge=             -0.0000 electrons
 Dipole moment (field-independent basis, Debye):
    X=             -1.4737    Y=              1.0803    Z=             -0.8405  Tot=              2.0113
 Quadrupole moment (field-independent basis, Debye-Ang):
   XX=           -203.0233   YY=           -180.1529   ZZ=           -182.7889
   XY=             10.6915   XZ=             -6.8058   YZ=             -1.0171
 Traceless Quadrupole moment (field-independent basis, Debye-Ang):
   XX=            -14.3682   YY=              8.5021   ZZ=              5.8661
   XY=             10.6915   XZ=             -6.8058   YZ=             -1.0171
 Octapole moment (field-independent basis, Debye-Ang**2):
  XXX=           -141.9219  YYY=              3.8086  ZZZ=             -5.2009  XYY=             32.7648
  XXY=             97.8436  XXZ=            -64.6046  XZZ=             15.4991  YZZ=             -1.2280
  YYZ=             -0.8720  XYZ=             -4.6195
 Hexadecapole moment (field-independent basis, Debye-Ang**3):
 XXXX=         -24305.1173 YYYY=          -2155.1231 ZZZZ=          -1275.8623 XXXY=            981.5679
 XXXZ=           -492.8753 YYYX=              6.8333 YYYZ=             -6.9297 ZZZX=             30.0079
 ZZZY=             -3.2065 XXYY=          -3977.1831 XXZZ=          -4002.7308 YYZZ=           -571.5185
 XXYZ=            -31.2268 YYXZ=            -18.4596 ZZXY=             -3.9321
 N-N= 2.830251755819D+03 E-N=-8.282789980921D+03  KE= 1.125589682029D+03
 No NMR shielding tensors so no spin-rotation constants.
 Leave Link  601 at Mon Jul 28 18:39:42 2025, MaxMem=  1073741824 cpu:               1.8 elap:               0.3
 (Enter /app/gaussian/g16/l701.exe)
 ... and contract with generalized density number  0.
 Compute integral first derivatives.
 Leave Link  701 at Mon Jul 28 18:39:42 2025, MaxMem=  1073741824 cpu:               1.9 elap:               0.3
 (Enter /app/gaussian/g16/l702.exe)
 L702 exits ... SP integral derivatives will be done elsewhere.
 Leave Link  702 at Mon Jul 28 18:39:42 2025, MaxMem=  1073741824 cpu:               0.1 elap:               0.0
 (Enter /app/gaussian/g16/l703.exe)
 Integral derivatives from FoFJK, PRISM(SPDF).
 Compute integral first derivatives, UseDBF=F ICtDFT=           0.
 Calling FoFJK, ICntrl=      2127 FMM=T ISym2X=0 I1Cent= 0 IOpClX= 0 NMat=1 NMatS=1 NMatT=0.
 FoFJK:  IHMeth= 1 ICntrl=    2127 DoSepK=F KAlg= 0 I1Cent=           0 FoldK=F
 IRaf=         0 NMat=       1 IRICut=       1 DoRegI=T DoRafI=F ISym2E= 0 IDoP0=0 IntGTp=1.
 FoFCou: FMM=T IPFlag=           0 FMFlag=      100000 FMFlg1=        2001
         NFxFlg=           0 DoJE=F BraDBF=F KetDBF=F FulRan=T
         wScrn=  0.000000 ICntrl=      2127 IOpCl=  0 I1Cent=           0 NGrid=           0
         NMat0=    1 NMatS0=      1 NMatT0=    0 NMatD0=    1 NMtDS0=    0 NMtDT0=    0
 Symmetry not used in FoFCou.
 FMM levels:  10  Number of levels for PrismC:   9
 Leave Link  703 at Mon Jul 28 18:40:33 2025, MaxMem=  1073741824 cpu:             409.9 elap:              51.4
 (Enter /app/gaussian/g16/l716.exe)
 Dipole        =-5.79789539D-01 4.25015896D-01-3.30687908D-01
 ***** Axes restored to original set *****
 -------------------------------------------------------------------
 Center     Atomic                   Forces (Hartrees/Bohr)
 Number     Number              X              Y              Z
 -------------------------------------------------------------------
      1        6           0.000069999   -0.003031700    0.001197277
      2        6          -0.000868646    0.010031709   -0.002079187
      3        6          -0.009409607   -0.006793206    0.005181378
      4        6          -0.001348932    0.003491344   -0.004364668
      5        6          -0.002149394   -0.002703129    0.001326860
      6        6           0.004360415    0.003577605   -0.000350676
      7        6          -0.000313513   -0.000729166    0.008261298
      8        6           0.001845640   -0.002504154   -0.008840693
      9        6          -0.001392826    0.001961465    0.003493573
     10        6          -0.000681541   -0.003372411    0.002100490
     11        6           0.002844382   -0.002316904   -0.000487890
     12        6           0.017096368    0.006637210    0.006431207
     13        8          -0.021170088   -0.002043777    0.004400851
     14        6          -0.006501336    0.002801937    0.002023591
     15        6          -0.001266731    0.003437451   -0.001683597
     16        6          -0.003137006   -0.001359798    0.002669753
     17        6          -0.000513044    0.004523782    0.002268628
     18        6          -0.001266457   -0.010361710   -0.005651679
     19        6           0.009662841   -0.002146142   -0.005868511
     20        6           0.010869798   -0.001575330    0.004265597
     21        6          -0.001435275    0.002078379   -0.005373941
     22        6          -0.000360251   -0.003607179   -0.002347794
     23        6           0.001701741    0.005565242   -0.000941084
     24        6          -0.002049642    0.002144383   -0.000249814
     25        6           0.003909116    0.000762008    0.004696461
     26        6          -0.000412828   -0.001471587   -0.006988737
     27        6          -0.002629935   -0.003885496    0.004417268
     28        6           0.000044740    0.003147488    0.006288101
     29        1           0.000926706    0.001789179   -0.000482152
     30        1          -0.001271786    0.000247908   -0.000986107
     31        1           0.000804823   -0.000547027   -0.001281301
     32        1          -0.000229005    0.004519943    0.001765571
     33        1           0.000208915   -0.000794437    0.002354025
     34        1          -0.002735002   -0.001430424   -0.002316929
     35        1          -0.000589814   -0.000233860   -0.002320146
     36        1           0.000840374   -0.000236727   -0.001243440
     37        1           0.000918298    0.001382492   -0.000230328
     38        1          -0.002937508   -0.000460232   -0.000231943
     39        1           0.002310034   -0.001216578   -0.002539460
     40        1           0.004781000    0.001574695   -0.003329361
     41        1           0.004114916   -0.001416486   -0.002939346
     42        1          -0.003902934    0.004081436    0.003545571
     43        1           0.005586557    0.001340248   -0.003127896
     44        1          -0.009265146   -0.004369141   -0.000791266
     45        1          -0.000596080    0.000069768   -0.001457125
     46        1          -0.001122013   -0.004132193   -0.000515394
     47        1           0.002597526   -0.000838625    0.000464608
     48        1           0.003085841   -0.000961023   -0.001639635
     49        1          -0.001845835    0.000467271    0.000368422
     50        1          -0.001189893   -0.001336300    0.001571700
     51        1           0.002304021   -0.000708358   -0.003022181
     52        1           0.001205467    0.001526181    0.001223634
     53        1          -0.002357160   -0.001799916    0.000603445
     54        1          -0.001314685   -0.002502765    0.000295376
     55        1           0.003786486    0.002942020    0.000330679
     56        1           0.002846115   -0.000939176    0.001038962
     57        1          -0.001814267    0.002982032    0.000973784
     58        1           0.000037194   -0.003038563    0.000935816
     59        1          -0.002405602   -0.002148736   -0.000253959
     60        1          -0.002107011    0.001590217   -0.001499672
     61        1           0.000739230   -0.000398973   -0.001777637
     62        1           0.000175935    0.001885446    0.001270909
     63        1           0.002663155   -0.001104783    0.001254970
     64        1          -0.001331406   -0.001218924    0.002078544
     65        1          -0.002898909    0.000475182   -0.001469902
     66        1           0.000700584   -0.001401624    0.000012001
     67        1           0.001193031    0.000822047   -0.001983907
     68        1           0.001812948    0.001018253    0.000802724
     69        1           0.001695019    0.000828642    0.000444920
     70        1          -0.000367238    0.000218652    0.002295589
     71        1           0.000819201   -0.001728063    0.000522111
     72        1          -0.003221859    0.000914440   -0.000364607
     73        1          -0.000891931    0.001416578   -0.000920639
     74        1           0.002743724    0.000611988   -0.001223087
 -------------------------------------------------------------------
 Cartesian Forces:  Max     0.021170088 RMS     0.003559564
 Leave Link  716 at Mon Jul 28 18:40:33 2025, MaxMem=  1073741824 cpu:               0.2 elap:               0.0
 (Enter /app/gaussian/g16/l103.exe)

 GradGradGradGradGradGradGradGradGradGradGradGradGradGradGradGradGradGrad
 Berny optimization.
 FormGI is forming the generalized inverse of G from B-inverse, IUseBI=4.
 Internal  Forces:  Max     0.031244299 RMS     0.002589911
 Search for a local minimum.
 Step number   1 out of a maximum of  444
 All quantities printed in internal units (Hartrees-Bohrs-Radians)
 RMS Force = .25899D-02 SwitMx=.10000D-02 MixMth= 1
 Mixed Optimization -- RFO/linear search
 Second derivative matrix not updated -- first step.
 ITU=  0
     Eigenvalues ---    0.00230   0.00230   0.00230   0.00230   0.00232
     Eigenvalues ---    0.00298   0.00327   0.00335   0.00351   0.00354
     Eigenvalues ---    0.00382   0.00424   0.00447   0.00501   0.00557
     Eigenvalues ---    0.00583   0.00667   0.00977   0.01102   0.01347
     Eigenvalues ---    0.01438   0.01651   0.01710   0.02207   0.02324
     Eigenvalues ---    0.02383   0.02733   0.03064   0.03086   0.03160
     Eigenvalues ---    0.03166   0.03287   0.03326   0.03511   0.03602
     Eigenvalues ---    0.03612   0.03688   0.03839   0.03868   0.04161
     Eigenvalues ---    0.04209   0.04348   0.04451   0.04539   0.04615
     Eigenvalues ---    0.04639   0.04660   0.04693   0.04698   0.04698
     Eigenvalues ---    0.04724   0.04752   0.04808   0.04836   0.04927
     Eigenvalues ---    0.04959   0.04995   0.05098   0.05148   0.05207
     Eigenvalues ---    0.05235   0.05281   0.05331   0.05359   0.05401
     Eigenvalues ---    0.05453   0.05459   0.05472   0.05480   0.05505
     Eigenvalues ---    0.05557   0.05563   0.05579   0.05742   0.05829
     Eigenvalues ---    0.05927   0.06048   0.06648   0.06841   0.06956
     Eigenvalues ---    0.07230   0.07426   0.07432   0.07850   0.08148
     Eigenvalues ---    0.08202   0.08208   0.08507   0.08615   0.08827
     Eigenvalues ---    0.08881   0.08957   0.09306   0.09391   0.09642
     Eigenvalues ---    0.10044   0.10371   0.10716   0.11311   0.11864
     Eigenvalues ---    0.12563   0.12598   0.12649   0.12896   0.13704
     Eigenvalues ---    0.13845   0.13872   0.14862   0.15618   0.16000
     Eigenvalues ---    0.16000   0.16000   0.16000   0.16000   0.16000
     Eigenvalues ---    0.16000   0.16000   0.16000   0.16000   0.16000
     Eigenvalues ---    0.16000   0.16000   0.16000   0.16000   0.16000
     Eigenvalues ---    0.16000   0.16344   0.16371   0.16473   0.16860
     Eigenvalues ---    0.16910   0.17774   0.18174   0.19097   0.19525
     Eigenvalues ---    0.21502   0.21783   0.21913   0.21943   0.21957
     Eigenvalues ---    0.22521   0.24400   0.24874   0.25979   0.26105
     Eigenvalues ---    0.26907   0.26929   0.26989   0.27316   0.27365
     Eigenvalues ---    0.27856   0.27864   0.27884   0.28375   0.28389
     Eigenvalues ---    0.28489   0.28632   0.28837   0.28871   0.28935
     Eigenvalues ---    0.29130   0.29296   0.29315   0.29362   0.29429
     Eigenvalues ---    0.29516   0.30580   0.31666   0.33306   0.33430
     Eigenvalues ---    0.33579   0.33832   0.33890   0.33892   0.33928
     Eigenvalues ---    0.33930   0.33985   0.34001   0.34003   0.34012
     Eigenvalues ---    0.34015   0.34019   0.34024   0.34045   0.34068
     Eigenvalues ---    0.34113   0.34120   0.34133   0.34135   0.34136
     Eigenvalues ---    0.34137   0.34145   0.34158   0.34202   0.34208
     Eigenvalues ---    0.34224   0.34229   0.34229   0.34236   0.34238
     Eigenvalues ---    0.34257   0.34258   0.34259   0.34260   0.34289
     Eigenvalues ---    0.34301   0.34347   0.34372   0.34413   0.34456
     Eigenvalues ---    0.34473   0.34650   0.35002   0.41556   0.52831
     Eigenvalues ---    0.53384
 RFO step:  Lambda=-1.46525763D-02 EMin= 2.30000000D-03
 Linear search not attempted -- first point.
 Iteration  1 RMS(Cart)=  0.04970554 RMS(Int)=  0.00063257
 Iteration  2 RMS(Cart)=  0.00089385 RMS(Int)=  0.00008587
 Iteration  3 RMS(Cart)=  0.00000143 RMS(Int)=  0.00008586
 Iteration  4 RMS(Cart)=  0.00000000 RMS(Int)=  0.00008586
 ITry= 1 IFail=0 DXMaxC= 3.85D-01 DCOld= 1.00D+10 DXMaxT= 3.00D-01 DXLimC= 3.00D+00 Rises=F
 Variable       Old X    -DE/DX   Delta X   Delta X   Delta X     New X
                                 (Linear)    (Quad)   (Total)
    R1        2.92437  -0.00065   0.00000  -0.00222  -0.00222   2.92215
    R2        2.06846   0.00120   0.00000   0.00335   0.00335   2.07180
    R3        2.06567   0.00063   0.00000   0.00174   0.00174   2.06741
    R4        2.06824   0.00098   0.00000   0.00273   0.00273   2.07098
    R5        2.92698   0.00722   0.00000   0.02438   0.02454   2.95152
    R6        2.91017   0.00419   0.00000   0.01488   0.01492   2.92509
    R7        2.95152   0.00752   0.00000   0.02463   0.02462   2.97614
    R8        2.89807   0.00372   0.00000   0.01352   0.01352   2.91159
    R9        2.87226   0.01260   0.00000   0.04183   0.04189   2.91416
   R10        2.08518   0.00093   0.00000   0.00269   0.00269   2.08787
   R11        2.93570   0.00286   0.00000   0.00827   0.00821   2.94391
   R12        2.90454   0.00268   0.00000   0.00900   0.00902   2.91356
   R13        2.07099   0.00242   0.00000   0.00679   0.00679   2.07778
   R14        2.98843  -0.00226   0.00000  -0.01097  -0.01097   2.97746
   R15        2.92807   0.00184   0.00000   0.00460   0.00454   2.93260
   R16        2.08304   0.00170   0.00000   0.00488   0.00488   2.08792
   R17        2.92454   0.00422   0.00000   0.01439   0.01439   2.93893
   R18        2.90393   0.00228   0.00000   0.00422   0.00418   2.90811
   R19        2.94456   0.00277   0.00000   0.00833   0.00829   2.95285
   R20        2.06953  -0.00007   0.00000  -0.00021  -0.00021   2.06932
   R21        2.06897   0.00053   0.00000   0.00148   0.00148   2.07045
   R22        2.06895   0.00110   0.00000   0.00308   0.00308   2.07204
   R23        2.54187   0.00059   0.00000   0.00180   0.00180   2.54367
   R24        2.86009   0.00456   0.00000   0.01405   0.01405   2.87414
   R25        2.82780   0.00722   0.00000   0.02282   0.02282   2.85062
   R26        2.05671   0.00166   0.00000   0.00455   0.00455   2.06126
   R27        2.07255   0.00203   0.00000   0.00572   0.00572   2.07826
   R28        2.07324   0.00443   0.00000   0.01249   0.01249   2.08574
   R29        2.89020   0.00485   0.00000   0.01697   0.01701   2.90722
   R30        2.07448   0.00175   0.00000   0.00494   0.00494   2.07942
   R31        2.07356   0.00226   0.00000   0.00637   0.00637   2.07993
   R32        2.69492   0.03124   0.00000   0.07263   0.07263   2.76755
   R33        2.88155  -0.00218   0.00000  -0.00394  -0.00392   2.87763
   R34        2.07305   0.00379   0.00000   0.01068   0.01068   2.08373
   R35        1.83812   0.00625   0.00000   0.01150   0.01150   1.84962
   R36        2.88812   0.00855   0.00000   0.02746   0.02746   2.91558
   R37        2.07329   0.00063   0.00000   0.00176   0.00176   2.07505
   R38        2.07309   0.00079   0.00000   0.00224   0.00224   2.07533
   R39        2.07216   0.00036   0.00000   0.00100   0.00100   2.07316
   R40        2.07615   0.00149   0.00000   0.00423   0.00423   2.08039
   R41        2.90817   0.00740   0.00000   0.02334   0.02335   2.93152
   R42        2.07085   0.00136   0.00000   0.00382   0.00382   2.07468
   R43        2.06707   0.00189   0.00000   0.00528   0.00528   2.07235
   R44        2.07451   0.00223   0.00000   0.00629   0.00629   2.08080
   R45        2.06538   0.00225   0.00000   0.00626   0.00626   2.07165
   R46        2.89725   0.01604   0.00000   0.05469   0.05465   2.95190
   R47        2.07065   0.00177   0.00000   0.00498   0.00498   2.07563
   R48        2.06893   0.00097   0.00000   0.00271   0.00271   2.07164
   R49        2.94632   0.00873   0.00000   0.02993   0.02983   2.97615
   R50        2.07107   0.00111   0.00000   0.00312   0.00312   2.07418
   R51        2.07102   0.00009   0.00000   0.00026   0.00026   2.07128
   R52        2.94592  -0.00043   0.00000  -0.00152  -0.00152   2.94440
   R53        2.08046   0.00134   0.00000   0.00381   0.00381   2.08427
   R54        2.93548   0.00042   0.00000   0.00145   0.00145   2.93693
   R55        2.89390   0.00723   0.00000   0.02351   0.02351   2.91741
   R56        2.07102   0.00264   0.00000   0.00742   0.00742   2.07844
   R57        2.90139   0.00750   0.00000   0.02466   0.02466   2.92605
   R58        2.06931   0.00163   0.00000   0.00458   0.00458   2.07388
   R59        2.07516   0.00254   0.00000   0.00719   0.00719   2.08235
   R60        2.89733   0.00796   0.00000   0.02601   0.02601   2.92334
   R61        2.07297   0.00178   0.00000   0.00501   0.00501   2.07798
   R62        2.07139   0.00214   0.00000   0.00603   0.00603   2.07742
   R63        2.91083   0.00423   0.00000   0.01412   0.01412   2.92494
   R64        2.07512   0.00233   0.00000   0.00658   0.00658   2.08171
   R65        2.07289   0.00222   0.00000   0.00626   0.00626   2.07915
   R66        2.88939   0.00818   0.00000   0.02641   0.02641   2.91580
   R67        2.89350   0.00853   0.00000   0.02772   0.02772   2.92121
   R68        2.07129   0.00280   0.00000   0.00788   0.00788   2.07917
   R69        2.06990   0.00146   0.00000   0.00410   0.00410   2.07400
   R70        2.06749   0.00174   0.00000   0.00485   0.00485   2.07234
   R71        2.06934   0.00220   0.00000   0.00615   0.00615   2.07550
   R72        2.06980   0.00192   0.00000   0.00537   0.00537   2.07517
   R73        2.06946   0.00191   0.00000   0.00535   0.00535   2.07481
   R74        2.06945   0.00170   0.00000   0.00475   0.00475   2.07420
   R75        2.06247   0.00190   0.00000   0.00525   0.00525   2.06772
   R76        2.06898   0.00184   0.00000   0.00515   0.00515   2.07414
   R77        2.06638   0.00192   0.00000   0.00536   0.00536   2.07174
    A1        1.93705  -0.00169   0.00000  -0.00989  -0.00992   1.92712
    A2        1.96815  -0.00137   0.00000  -0.00720  -0.00722   1.96093
    A3        1.96115  -0.00112   0.00000  -0.00678  -0.00681   1.95434
    A4        1.86007   0.00175   0.00000   0.01079   0.01077   1.87084
    A5        1.86811   0.00134   0.00000   0.00651   0.00646   1.87457
    A6        1.86303   0.00144   0.00000   0.00869   0.00867   1.87170
    A7        1.98249  -0.00161   0.00000  -0.01912  -0.01908   1.96342
    A8        1.92749   0.00089   0.00000   0.00074   0.00081   1.92830
    A9        1.93572  -0.00163   0.00000  -0.01498  -0.01496   1.92076
   A10        1.85131  -0.00045   0.00000   0.00737   0.00719   1.85850
   A11        1.73592   0.00226   0.00000   0.01471   0.01452   1.75045
   A12        2.02362   0.00057   0.00000   0.01223   0.01212   2.03574
   A13        1.99029   0.00075   0.00000   0.01434   0.01400   2.00429
   A14        1.81565  -0.00035   0.00000   0.00343   0.00319   1.81884
   A15        1.88335  -0.00204   0.00000  -0.03935  -0.03927   1.84408
   A16        2.05658   0.00104   0.00000   0.01669   0.01642   2.07299
   A17        1.85788  -0.00069   0.00000  -0.01278  -0.01286   1.84501
   A18        1.85017   0.00105   0.00000   0.01242   0.01244   1.86261
   A19        1.91252   0.00087   0.00000   0.00502   0.00496   1.91748
   A20        1.93317   0.00031   0.00000   0.00546   0.00548   1.93865
   A21        1.90638  -0.00064   0.00000  -0.00392  -0.00389   1.90250
   A22        1.92163  -0.00046   0.00000  -0.00483  -0.00480   1.91682
   A23        1.91191  -0.00061   0.00000  -0.00537  -0.00536   1.90655
   A24        1.87782   0.00050   0.00000   0.00343   0.00339   1.88121
   A25        1.94832   0.00284   0.00000   0.01566   0.01572   1.96404
   A26        1.95967   0.00029   0.00000   0.00210   0.00204   1.96171
   A27        1.84778  -0.00078   0.00000  -0.00252  -0.00250   1.84528
   A28        1.99174  -0.00322   0.00000  -0.01591  -0.01588   1.97586
   A29        1.86495  -0.00079   0.00000  -0.01833  -0.01825   1.84670
   A30        1.83916   0.00169   0.00000   0.01879   0.01868   1.85784
   A31        1.94365  -0.00050   0.00000   0.00046   0.00045   1.94410
   A32        1.93225  -0.00091   0.00000  -0.00925  -0.00928   1.92297
   A33        1.88953   0.00127   0.00000   0.00338   0.00340   1.89293
   A34        1.88515   0.00136   0.00000   0.01270   0.01275   1.89790
   A35        1.90849  -0.00101   0.00000   0.00052   0.00052   1.90900
   A36        1.90446  -0.00024   0.00000  -0.00805  -0.00811   1.89635
   A37        1.96108  -0.00264   0.00000  -0.01509  -0.01514   1.94594
   A38        1.95143  -0.00136   0.00000  -0.00923  -0.00930   1.94213
   A39        1.94884  -0.00058   0.00000  -0.00192  -0.00192   1.94692
   A40        1.86259   0.00182   0.00000   0.00783   0.00772   1.87031
   A41        1.85095   0.00210   0.00000   0.01474   0.01475   1.86570
   A42        1.88319   0.00105   0.00000   0.00591   0.00590   1.88909
   A43        2.14518  -0.00020   0.00000  -0.00060  -0.00066   2.14452
   A44        2.04003  -0.00227   0.00000  -0.01011  -0.01015   2.02988
   A45        2.09797   0.00247   0.00000   0.01077   0.01079   2.10876
   A46        2.17613   0.00159   0.00000   0.00859   0.00856   2.18470
   A47        2.09306  -0.00331   0.00000  -0.01873  -0.01872   2.07434
   A48        2.01398   0.00173   0.00000   0.01016   0.01017   2.02414
   A49        1.98400  -0.00274   0.00000  -0.00940  -0.00935   1.97465
   A50        1.90347   0.00102   0.00000   0.00880   0.00876   1.91223
   A51        1.93075  -0.00146   0.00000  -0.02058  -0.02051   1.91024
   A52        1.89572   0.00203   0.00000   0.01612   0.01610   1.91182
   A53        1.88160   0.00286   0.00000   0.02355   0.02341   1.90501
   A54        1.86425  -0.00161   0.00000  -0.01866  -0.01884   1.84541
   A55        1.95728   0.00286   0.00000   0.01387   0.01387   1.97115
   A56        1.94473  -0.00445   0.00000  -0.03390  -0.03390   1.91082
   A57        1.91400   0.00255   0.00000   0.02070   0.02085   1.93485
   A58        1.89690   0.00204   0.00000   0.01989   0.02006   1.91696
   A59        1.91684  -0.00542   0.00000  -0.04421  -0.04408   1.87276
   A60        1.82976   0.00227   0.00000   0.02327   0.02362   1.85338
   A61        1.92155   0.00440   0.00000   0.03058   0.03060   1.95215
   A62        1.93716  -0.00024   0.00000  -0.00479  -0.00488   1.93227
   A63        1.92184  -0.00267   0.00000  -0.02414  -0.02463   1.89721
   A64        1.89180  -0.00290   0.00000  -0.01334  -0.01330   1.87851
   A65        1.87932   0.00173   0.00000   0.02793   0.02804   1.90736
   A66        1.91100  -0.00027   0.00000  -0.01522  -0.01553   1.89548
   A67        1.87411   0.01499   0.00000   0.08584   0.08584   1.95995
   A68        1.94267  -0.00104   0.00000  -0.00161  -0.00156   1.94110
   A69        1.91098  -0.00018   0.00000  -0.00455  -0.00454   1.90644
   A70        1.92362  -0.00215   0.00000  -0.02745  -0.02743   1.89619
   A71        1.91486   0.00062   0.00000   0.00546   0.00540   1.92026
   A72        1.93100   0.00202   0.00000   0.01391   0.01375   1.94475
   A73        1.83783   0.00084   0.00000   0.01502   0.01481   1.85264
   A74        1.99677   0.00155   0.00000   0.00881   0.00878   2.00554
   A75        1.92598  -0.00246   0.00000  -0.02078  -0.02086   1.90512
   A76        1.91124  -0.00221   0.00000  -0.02109  -0.02122   1.89002
   A77        1.88729   0.00101   0.00000   0.01315   0.01320   1.90050
   A78        1.88144   0.00163   0.00000   0.01827   0.01836   1.89979
   A79        1.85535   0.00054   0.00000   0.00239   0.00186   1.85721
   A80        1.98848   0.00047   0.00000   0.00335   0.00333   1.99181
   A81        1.91430  -0.00114   0.00000  -0.00920  -0.00920   1.90510
   A82        1.93101  -0.00069   0.00000  -0.00753  -0.00757   1.92344
   A83        1.88258   0.00044   0.00000   0.00609   0.00614   1.88872
   A84        1.88846   0.00098   0.00000   0.01021   0.01020   1.89866
   A85        1.85353  -0.00006   0.00000  -0.00288  -0.00299   1.85054
   A86        1.95594  -0.00003   0.00000  -0.00061  -0.00070   1.95524
   A87        1.92091  -0.00201   0.00000  -0.02246  -0.02242   1.89849
   A88        1.94653  -0.00004   0.00000   0.00126   0.00129   1.94782
   A89        1.89788   0.00149   0.00000   0.01354   0.01356   1.91144
   A90        1.88413   0.00045   0.00000   0.00657   0.00653   1.89065
   A91        1.85493   0.00023   0.00000   0.00273   0.00258   1.85752
   A92        1.81153  -0.00053   0.00000   0.00238   0.00240   1.81393
   A93        1.94718  -0.00153   0.00000  -0.01680  -0.01683   1.93035
   A94        1.95803   0.00077   0.00000   0.00406   0.00394   1.96198
   A95        1.92870   0.00141   0.00000   0.01315   0.01322   1.94191
   A96        1.94253   0.00105   0.00000   0.01246   0.01234   1.95487
   A97        1.87675  -0.00107   0.00000  -0.01402  -0.01414   1.86261
   A98        1.87390  -0.00166   0.00000  -0.00497  -0.00501   1.86889
   A99        1.90872   0.00287   0.00000   0.02799   0.02799   1.93671
   A100       1.92682   0.00157   0.00000   0.01541   0.01532   1.94213
   A101       1.95512  -0.00205   0.00000  -0.02508  -0.02501   1.93011
   A102       1.92293   0.00097   0.00000   0.00646   0.00642   1.92935
   A103       1.87681  -0.00159   0.00000  -0.01878  -0.01913   1.85769
   A104       1.79465   0.00166   0.00000   0.00944   0.00940   1.80405
   A105       2.09039   0.00009   0.00000  -0.00061  -0.00081   2.08958
   A106       1.87823  -0.00176   0.00000  -0.02060  -0.02068   1.85755
   A107       1.95173  -0.00088   0.00000   0.00885   0.00885   1.96058
   A108       1.86830   0.00104   0.00000   0.01426   0.01437   1.88267
   A109       1.86912  -0.00003   0.00000  -0.00957  -0.00978   1.85934
   A110       1.92009  -0.00123   0.00000  -0.00693  -0.00703   1.91306
   A111       1.95924   0.00175   0.00000   0.01312   0.01315   1.97239
   A112       1.88881  -0.00093   0.00000  -0.01379  -0.01388   1.87493
   A113       1.92313   0.00002   0.00000   0.00427   0.00429   1.92742
   A114       1.88784   0.00023   0.00000  -0.00440  -0.00452   1.88332
   A115       1.88268   0.00013   0.00000   0.00705   0.00711   1.88978
   A116       2.03345   0.00010   0.00000   0.00028   0.00030   2.03376
   A117       1.91890  -0.00159   0.00000  -0.01161  -0.01167   1.90723
   A118       1.89932  -0.00134   0.00000  -0.01628  -0.01631   1.88301
   A119       1.87543   0.00188   0.00000   0.02000   0.01999   1.89542
   A120       1.88328   0.00079   0.00000   0.00585   0.00580   1.88907
   A121       1.84404   0.00024   0.00000   0.00258   0.00233   1.84637
   A122       2.02032   0.00178   0.00000   0.00759   0.00760   2.02792
   A123       1.88897  -0.00088   0.00000  -0.00529  -0.00528   1.88369
   A124       1.91305  -0.00027   0.00000   0.00040   0.00040   1.91345
   A125       1.90633  -0.00037   0.00000  -0.00174  -0.00173   1.90460
   A126       1.89452  -0.00082   0.00000  -0.00350  -0.00350   1.89101
   A127       1.83132   0.00046   0.00000   0.00207   0.00207   1.83339
   A128       2.01938   0.00305   0.00000   0.01361   0.01363   2.03301
   A129       1.88256   0.00053   0.00000   0.00799   0.00808   1.89064
   A130       1.90044  -0.00016   0.00000   0.00678   0.00680   1.90724
   A131       1.90349  -0.00269   0.00000  -0.02126  -0.02133   1.88216
   A132       1.90525  -0.00154   0.00000  -0.00913  -0.00926   1.89600
   A133       1.84475   0.00065   0.00000   0.00120   0.00100   1.84575
   A134       1.96139  -0.00083   0.00000  -0.00164  -0.00185   1.95954
   A135       1.91463   0.00060   0.00000   0.00888   0.00882   1.92345
   A136       1.90814  -0.00077   0.00000  -0.01771  -0.01774   1.89041
   A137       1.91511   0.00136   0.00000   0.01553   0.01548   1.93059
   A138       1.88964  -0.00015   0.00000  -0.00601  -0.00611   1.88353
   A139       1.87265  -0.00020   0.00000   0.00066   0.00073   1.87338
   A140       1.93228   0.00025   0.00000   0.00229   0.00223   1.93451
   A141       1.94426   0.00234   0.00000   0.01524   0.01521   1.95947
   A142       1.94197  -0.00123   0.00000  -0.00976  -0.00974   1.93223
   A143       1.87097  -0.00057   0.00000   0.00189   0.00180   1.87276
   A144       1.88371  -0.00001   0.00000  -0.00359  -0.00360   1.88011
   A145       1.88793  -0.00083   0.00000  -0.00637  -0.00633   1.88160
   A146       1.94284  -0.00115   0.00000  -0.00910  -0.00908   1.93376
   A147       1.93380   0.00169   0.00000   0.01100   0.01096   1.94476
   A148       1.93429   0.00120   0.00000   0.00808   0.00803   1.94233
   A149       1.88632  -0.00063   0.00000  -0.00589  -0.00586   1.88046
   A150       1.88529  -0.00041   0.00000  -0.00480  -0.00479   1.88051
   A151       1.87905  -0.00079   0.00000   0.00031   0.00020   1.87925
   A152       1.94354   0.00136   0.00000   0.01084   0.01083   1.95438
   A153       1.94194   0.00013   0.00000  -0.00443  -0.00446   1.93748
   A154       1.95386  -0.00175   0.00000  -0.00791  -0.00797   1.94588
   A155       1.89658  -0.00140   0.00000  -0.01191  -0.01189   1.88469
   A156       1.83905   0.00163   0.00000   0.01920   0.01916   1.85822
   A157       1.88469   0.00005   0.00000  -0.00528  -0.00536   1.87933
    D1       -3.07075   0.00045   0.00000  -0.00503  -0.00494  -3.07569
    D2       -0.99348  -0.00057   0.00000  -0.00786  -0.00786  -1.00134
    D3        1.27463  -0.00040   0.00000  -0.00295  -0.00302   1.27161
    D4       -0.98522   0.00058   0.00000  -0.00302  -0.00294  -0.98815
    D5        1.09205  -0.00044   0.00000  -0.00585  -0.00585   1.08620
    D6       -2.92302  -0.00027   0.00000  -0.00094  -0.00102  -2.92404
    D7        1.12139   0.00066   0.00000  -0.00188  -0.00181   1.11958
    D8       -3.08453  -0.00036   0.00000  -0.00471  -0.00472  -3.08925
    D9       -0.81642  -0.00019   0.00000   0.00020   0.00011  -0.81630
   D10        1.03591   0.00173   0.00000   0.02744   0.02750   1.06342
   D11       -1.22727   0.00014   0.00000  -0.00685  -0.00679  -1.23405
   D12        3.09592  -0.00007   0.00000  -0.00653  -0.00652   3.08940
   D13       -1.08445   0.00191   0.00000   0.03302   0.03310  -1.05135
   D14        2.93555   0.00031   0.00000  -0.00128  -0.00119   2.93437
   D15        0.97556   0.00011   0.00000  -0.00096  -0.00092   0.97464
   D16        3.09323   0.00046   0.00000   0.01047   0.01042   3.10365
   D17        0.83005  -0.00113   0.00000  -0.02382  -0.02387   0.80618
   D18       -1.12995  -0.00134   0.00000  -0.02350  -0.02361  -1.15355
   D19       -1.15001  -0.00008   0.00000  -0.00369  -0.00361  -1.15362
   D20        3.01893  -0.00056   0.00000  -0.00491  -0.00488   3.01404
   D21        0.96466   0.00045   0.00000   0.00524   0.00524   0.96990
   D22        1.00528  -0.00180   0.00000  -0.02190  -0.02184   0.98344
   D23       -1.10897  -0.00229   0.00000  -0.02311  -0.02311  -1.13208
   D24        3.11994  -0.00127   0.00000  -0.01296  -0.01299   3.10695
   D25        2.91282   0.00092   0.00000   0.00626   0.00637   2.91919
   D26        0.79857   0.00043   0.00000   0.00504   0.00510   0.80367
   D27       -1.25570   0.00145   0.00000   0.01519   0.01522  -1.24048
   D28        1.39112  -0.00118   0.00000  -0.00309  -0.00306   1.38806
   D29       -0.78558  -0.00148   0.00000  -0.02255  -0.02250  -0.80809
   D30       -2.92312   0.00004   0.00000   0.00914   0.00907  -2.91405
   D31       -0.70090   0.00013   0.00000   0.01711   0.01723  -0.68367
   D32       -2.87761  -0.00017   0.00000  -0.00234  -0.00221  -2.87982
   D33        1.26804   0.00135   0.00000   0.02934   0.02937   1.29741
   D34       -2.67581  -0.00092   0.00000  -0.00516  -0.00521  -2.68102
   D35        1.43067  -0.00122   0.00000  -0.02462  -0.02466   1.40602
   D36       -0.70687   0.00030   0.00000   0.00707   0.00692  -0.69994
   D37        1.01967  -0.00123   0.00000  -0.02779  -0.02791   0.99176
   D38       -3.14007  -0.00102   0.00000  -0.02693  -0.02702   3.11610
   D39       -1.07484  -0.00061   0.00000  -0.02188  -0.02197  -1.09681
   D40       -3.12748  -0.00015   0.00000   0.00451   0.00466  -3.12283
   D41       -1.00403   0.00006   0.00000   0.00536   0.00555  -0.99849
   D42        1.06120   0.00047   0.00000   0.01042   0.01059   1.07179
   D43       -1.05488   0.00133   0.00000   0.02125   0.02119  -1.03369
   D44        1.06857   0.00154   0.00000   0.02210   0.02208   1.09065
   D45        3.13380   0.00195   0.00000   0.02716   0.02712  -3.12226
   D46       -0.62253   0.00139   0.00000   0.01953   0.01948  -0.60305
   D47        1.45450   0.00199   0.00000   0.02813   0.02810   1.48260
   D48       -2.72160   0.00006   0.00000   0.00100   0.00102  -2.72058
   D49       -2.84519  -0.00006   0.00000  -0.01458  -0.01463  -2.85982
   D50       -0.76817   0.00054   0.00000  -0.00598  -0.00601  -0.77417
   D51        1.33892  -0.00139   0.00000  -0.03310  -0.03309   1.30583
   D52        1.36132  -0.00061   0.00000  -0.01791  -0.01802   1.34330
   D53       -2.84484  -0.00002   0.00000  -0.00931  -0.00940  -2.85424
   D54       -0.73775  -0.00194   0.00000  -0.03644  -0.03648  -0.77424
   D55       -3.11334   0.00179   0.00000   0.01225   0.01224  -3.10109
   D56       -0.85127   0.00005   0.00000   0.00560   0.00564  -0.84563
   D57        1.14680   0.00175   0.00000   0.02755   0.02750   1.17430
   D58        1.03948   0.00113   0.00000   0.00528   0.00529   1.04477
   D59       -2.98164  -0.00061   0.00000  -0.00137  -0.00131  -2.98295
   D60       -0.98357   0.00108   0.00000   0.02058   0.02055  -0.96302
   D61       -1.02222   0.00117   0.00000   0.00723   0.00722  -1.01500
   D62        1.23985  -0.00058   0.00000   0.00058   0.00062   1.24047
   D63       -3.04526   0.00112   0.00000   0.02253   0.02247  -3.02278
   D64       -2.86738   0.00043   0.00000   0.00823   0.00828  -2.85910
   D65        1.29782  -0.00107   0.00000  -0.01249  -0.01241   1.28541
   D66       -0.74763   0.00112   0.00000   0.01691   0.01699  -0.73064
   D67       -0.74930   0.00142   0.00000   0.01493   0.01491  -0.73438
   D68       -2.86727  -0.00008   0.00000  -0.00579  -0.00578  -2.87306
   D69        1.37046   0.00211   0.00000   0.02361   0.02362   1.39408
   D70        1.33329   0.00072   0.00000   0.00774   0.00774   1.34103
   D71       -0.78469  -0.00079   0.00000  -0.01297  -0.01296  -0.79765
   D72       -2.83013   0.00141   0.00000   0.01642   0.01644  -2.81369
   D73        1.32243   0.00018   0.00000  -0.00169  -0.00171   1.32071
   D74       -0.77524  -0.00060   0.00000  -0.01182  -0.01186  -0.78709
   D75       -2.86209  -0.00056   0.00000   0.00141   0.00141  -2.86069
   D76       -0.92275   0.00004   0.00000  -0.00479  -0.00467  -0.92742
   D77       -3.02041  -0.00074   0.00000  -0.01492  -0.01481  -3.03522
   D78        1.17592  -0.00070   0.00000  -0.00169  -0.00155   1.17437
   D79       -2.94823   0.00027   0.00000  -0.00719  -0.00731  -2.95554
   D80        1.23729  -0.00051   0.00000  -0.01732  -0.01745   1.21984
   D81       -0.84957  -0.00047   0.00000  -0.00409  -0.00419  -0.85375
   D82        0.83831   0.00020   0.00000   0.01116   0.01114   0.84945
   D83        2.95031   0.00026   0.00000   0.01458   0.01458   2.96489
   D84       -1.29382  -0.00091   0.00000   0.00107   0.00113  -1.29269
   D85        3.07772   0.00162   0.00000   0.02107   0.02105   3.09877
   D86       -1.09346   0.00168   0.00000   0.02449   0.02449  -1.06897
   D87        0.94559   0.00051   0.00000   0.01097   0.01103   0.95663
   D88       -1.16502   0.00001   0.00000   0.00226   0.00213  -1.16289
   D89        0.94698   0.00006   0.00000   0.00568   0.00557   0.95255
   D90        2.98604  -0.00110   0.00000  -0.00784  -0.00789   2.97815
   D91       -3.03998   0.00076   0.00000   0.01074   0.01072  -3.02927
   D92       -0.94598   0.00029   0.00000   0.00376   0.00379  -0.94219
   D93        1.16594   0.00027   0.00000   0.00351   0.00352   1.16946
   D94       -0.91475   0.00022   0.00000   0.00794   0.00792  -0.90683
   D95        1.17925  -0.00025   0.00000   0.00096   0.00099   1.18025
   D96       -2.99201  -0.00027   0.00000   0.00071   0.00072  -2.99129
   D97        1.15575   0.00015   0.00000   0.00591   0.00586   1.16161
   D98       -3.03343  -0.00032   0.00000  -0.00107  -0.00106  -3.03449
   D99       -0.92151  -0.00034   0.00000  -0.00132  -0.00133  -0.92285
   D100       0.25055  -0.00019   0.00000   0.00808   0.00798   0.25853
   D101      -2.88619  -0.00039   0.00000  -0.00535  -0.00534  -2.89153
   D102      -1.88171   0.00011   0.00000   0.00500   0.00496  -1.87675
   D103       1.26474  -0.00009   0.00000  -0.00843  -0.00837   1.25637
   D104       2.32841   0.00067   0.00000   0.00160   0.00162   2.33003
   D105      -0.80833   0.00048   0.00000  -0.01183  -0.01170  -0.82003
   D106       2.94737   0.00042   0.00000  -0.00079  -0.00079   2.94658
   D107      -1.20307   0.00098   0.00000   0.00689   0.00674  -1.19633
   D108       0.83342  -0.00111   0.00000  -0.01483  -0.01468   0.81874
   D109      -1.21533  -0.00002   0.00000   0.00216   0.00217  -1.21316
   D110       0.91742   0.00054   0.00000   0.00984   0.00970   0.92712
   D111       2.95391  -0.00155   0.00000  -0.01187  -0.01171   2.94219
   D112       0.84312   0.00090   0.00000   0.01312   0.01314   0.85626
   D113       2.97587   0.00146   0.00000   0.02080   0.02067   2.99654
   D114      -1.27083  -0.00063   0.00000  -0.00092  -0.00075  -1.27158
   D115       0.02627  -0.00027   0.00000  -0.00372  -0.00374   0.02254
   D116      -3.12205   0.00054   0.00000   0.00082   0.00080  -3.12125
   D117      -3.12033  -0.00008   0.00000   0.01009   0.01012  -3.11021
   D118       0.01453   0.00073   0.00000   0.01462   0.01465   0.02918
   D119       0.87825  -0.00024   0.00000   0.01088   0.01099   0.88925
   D120       3.00909   0.00122   0.00000   0.02201   0.02200   3.03109
   D121      -1.25621   0.00293   0.00000   0.04322   0.04315  -1.21306
   D122      -2.25862  -0.00042   0.00000  -0.00213  -0.00201  -2.26063
   D123      -0.12779   0.00103   0.00000   0.00900   0.00900  -0.11879
   D124       1.89010   0.00275   0.00000   0.03020   0.03015   1.92025
   D125       0.23162   0.00014   0.00000  -0.00570  -0.00568   0.22594
   D126       2.35392   0.00109   0.00000   0.01093   0.01093   2.36485
   D127      -1.91531   0.00175   0.00000   0.00970   0.00986  -1.90545
   D128      -2.90352  -0.00063   0.00000  -0.00995  -0.00999  -2.91351
   D129      -0.78122   0.00033   0.00000   0.00668   0.00662  -0.77460
   D130       1.23274   0.00098   0.00000   0.00544   0.00555   1.23829
   D131      -3.02507   0.00045   0.00000   0.00259   0.00256  -3.02252
   D132      -0.93040  -0.00046   0.00000   0.00286   0.00282  -0.92758
   D133       1.18856  -0.00275   0.00000  -0.03575  -0.03549   1.15308
   D134       1.10025   0.00274   0.00000   0.02221   0.02201   1.12225
   D135      -3.08826   0.00183   0.00000   0.02247   0.02227  -3.06599
   D136      -0.96930  -0.00046   0.00000  -0.01613  -0.01604  -0.98534
   D137      -0.89223   0.00181   0.00000   0.00719   0.00713  -0.88510
   D138       1.20245   0.00091   0.00000   0.00746   0.00739   1.20984
   D139      -2.96178  -0.00138   0.00000  -0.03115  -0.03092  -2.99269
   D140      -1.05710   0.00015   0.00000   0.00244   0.00210  -1.05501
   D141       3.10417  -0.00042   0.00000  -0.00203  -0.00214   3.10203
   D142       1.03836   0.00051   0.00000   0.00787   0.00832   1.04668
   D143       0.97911  -0.00229   0.00000  -0.01977  -0.01971   0.95939
   D144       3.09923  -0.00232   0.00000  -0.01702  -0.01700   3.08223
   D145      -1.17019  -0.00263   0.00000  -0.01706  -0.01705  -1.18725
   D146       3.09140   0.00112   0.00000   0.00646   0.00645   3.09785
   D147      -1.07166   0.00109   0.00000   0.00921   0.00916  -1.06250
   D148       0.94210   0.00078   0.00000   0.00917   0.00911   0.95121
   D149      -1.14620   0.00139   0.00000   0.02386   0.02390  -1.12230
   D150       0.97393   0.00137   0.00000   0.02661   0.02660   1.00053
   D151       2.98769   0.00106   0.00000   0.02657   0.02655   3.01424
   D152      -0.96293  -0.00006   0.00000  -0.00058  -0.00055  -0.96348
   D153      -3.11663   0.00129   0.00000   0.01031   0.01039  -3.10624
   D154       1.16738  -0.00067   0.00000  -0.00834  -0.00833   1.15906
   D155      -3.08079   0.00043   0.00000   0.00251   0.00255  -3.07824
   D156       1.04869   0.00179   0.00000   0.01340   0.01350   1.06219
   D157      -0.95048  -0.00018   0.00000  -0.00525  -0.00523  -0.95570
   D158       1.18214  -0.00212   0.00000  -0.02703  -0.02712   1.15502
   D159      -0.97156  -0.00076   0.00000  -0.01614  -0.01617  -0.98774
   D160      -2.97073  -0.00273   0.00000  -0.03479  -0.03490  -3.00562
   D161      -0.93552  -0.00011   0.00000  -0.00330  -0.00326  -0.93878
   D162       1.19196  -0.00163   0.00000  -0.02268  -0.02270   1.16926
   D163      -3.08578  -0.00036   0.00000  -0.00906  -0.00900  -3.09477
   D164      -3.06511   0.00071   0.00000   0.00182   0.00183  -3.06327
   D165      -0.93763  -0.00081   0.00000  -0.01757  -0.01761  -0.95523
   D166       1.06782   0.00046   0.00000  -0.00395  -0.00390   1.06392
   D167       1.21987   0.00005   0.00000  -0.00306  -0.00306   1.21681
   D168      -2.93583  -0.00147   0.00000  -0.02245  -0.02250  -2.95833
   D169      -0.93039  -0.00019   0.00000  -0.00882  -0.00879  -0.93918
   D170       0.16523  -0.00014   0.00000  -0.00393  -0.00391   0.16133
   D171       2.29025  -0.00195   0.00000  -0.02092  -0.02101   2.26924
   D172      -1.93130  -0.00121   0.00000  -0.01762  -0.01755  -1.94886
   D173      -1.92442   0.00127   0.00000   0.00797   0.00799  -1.91643
   D174       0.20060  -0.00054   0.00000  -0.00903  -0.00911   0.19149
   D175       2.26223   0.00020   0.00000  -0.00572  -0.00566   2.25657
   D176       2.27477   0.00100   0.00000   0.00881   0.00883   2.28360
   D177      -1.88339  -0.00081   0.00000  -0.00819  -0.00827  -1.89167
   D178       0.17824  -0.00006   0.00000  -0.00488  -0.00482   0.17342
   D179       0.34402  -0.00104   0.00000  -0.01227  -0.01220   0.33181
   D180       2.60897  -0.00031   0.00000  -0.00075  -0.00068   2.60829
   D181      -1.63222  -0.00020   0.00000   0.00117   0.00123  -1.63099
   D182      -1.75174  -0.00228   0.00000  -0.02860  -0.02855  -1.78029
   D183       0.51321  -0.00155   0.00000  -0.01708  -0.01703   0.49618
   D184       2.55520  -0.00143   0.00000  -0.01516  -0.01511   2.54009
   D185       2.44302   0.00040   0.00000   0.00710   0.00706   2.45008
   D186      -1.57521   0.00114   0.00000   0.01861   0.01858  -1.55663
   D187       0.46678   0.00125   0.00000   0.02053   0.02049   0.48728
   D188       3.13286   0.00072   0.00000   0.00115   0.00116   3.13402
   D189      -1.00208   0.00108   0.00000   0.01082   0.01081  -0.99127
   D190       1.07367   0.00169   0.00000   0.01848   0.01839   1.09207
   D191       1.03317  -0.00088   0.00000  -0.01953  -0.01948   1.01369
   D192      -3.10177  -0.00052   0.00000  -0.00986  -0.00984  -3.11161
   D193      -1.02602   0.00009   0.00000  -0.00220  -0.00225  -1.02827
   D194      -1.00833  -0.00163   0.00000  -0.03583  -0.03576  -1.04410
   D195       1.13991  -0.00127   0.00000  -0.02616  -0.02612   1.11380
   D196      -3.06752  -0.00066   0.00000  -0.01849  -0.01853  -3.08605
   D197      -3.06878   0.00060   0.00000   0.00496   0.00498  -3.06381
   D198      -0.93045   0.00190   0.00000   0.02252   0.02245  -0.90800
   D199       1.08151   0.00056   0.00000   0.01008   0.01010   1.09160
   D200       1.04512  -0.00079   0.00000  -0.00985  -0.00981   1.03531
   D201      -3.09973   0.00051   0.00000   0.00770   0.00766  -3.09207
   D202      -1.08777  -0.00083   0.00000  -0.00473  -0.00469  -1.09247
   D203      -1.00899  -0.00108   0.00000  -0.01817  -0.01814  -1.02713
   D204       1.12935   0.00022   0.00000  -0.00061  -0.00067   1.12868
   D205       3.14130  -0.00112   0.00000  -0.01305  -0.01302   3.12828
   D206       1.17367  -0.00084   0.00000  -0.01973  -0.01975   1.15392
   D207      -0.94508  -0.00008   0.00000  -0.00895  -0.00892  -0.95400
   D208      -3.05576   0.00098   0.00000   0.00645   0.00644  -3.04933
   D209      -2.96298  -0.00117   0.00000  -0.01633  -0.01632  -2.97930
   D210       1.20146  -0.00042   0.00000  -0.00555  -0.00550   1.19596
   D211      -0.90922   0.00064   0.00000   0.00985   0.00986  -0.89936
   D212      -0.90568  -0.00082   0.00000  -0.01511  -0.01515  -0.92083
   D213      -3.02442  -0.00006   0.00000  -0.00433  -0.00432  -3.02875
   D214       1.14808   0.00100   0.00000   0.01107   0.01103   1.15911
   D215       0.95222   0.00048   0.00000   0.02472   0.02475   0.97697
   D216       3.09801   0.00055   0.00000   0.02362   0.02364   3.12165
   D217      -1.19714   0.00048   0.00000   0.02344   0.02346  -1.17368
   D218      -1.20863   0.00099   0.00000   0.02369   0.02371  -1.18492
   D219       0.93716   0.00106   0.00000   0.02258   0.02260   0.95976
   D220       2.92520   0.00099   0.00000   0.02240   0.02242   2.94762
   D221       3.09350  -0.00059   0.00000   0.00810   0.00806   3.10156
   D222      -1.04390  -0.00052   0.00000   0.00700   0.00695  -1.03695
   D223       0.94414  -0.00059   0.00000   0.00682   0.00677   0.95091
   D224       0.98169   0.00051   0.00000   0.02033   0.02034   1.00203
   D225       3.11808  -0.00050   0.00000   0.00811   0.00813   3.12621
   D226      -1.17111   0.00046   0.00000   0.01712   0.01710  -1.15401
   D227      -1.15492   0.00069   0.00000   0.02324   0.02324  -1.13167
   D228       0.98147  -0.00031   0.00000   0.01102   0.01104   0.99251
   D229       2.97547   0.00064   0.00000   0.02003   0.02001   2.99547
   D230       3.14077   0.00078   0.00000   0.02355   0.02356  -3.11886
   D231      -1.00603  -0.00022   0.00000   0.01134   0.01135  -0.99468
   D232       0.98796   0.00073   0.00000   0.02034   0.02032   1.00828
   D233       1.05255  -0.00088   0.00000  -0.01325  -0.01323   1.03932
   D234      -3.09513   0.00072   0.00000   0.01184   0.01183  -3.08330
   D235      -1.04609   0.00037   0.00000   0.00744   0.00739  -1.03870
   D236      -1.07270  -0.00163   0.00000  -0.01675  -0.01662  -1.08932
   D237       1.06281  -0.00003   0.00000   0.00834   0.00843   1.07124
   D238       3.11185  -0.00038   0.00000   0.00394   0.00399   3.11584
   D239      -3.08036  -0.00010   0.00000  -0.00163  -0.00167  -3.08203
   D240      -0.94486   0.00150   0.00000   0.02346   0.02339  -0.92147
   D241       1.10418   0.00115   0.00000   0.01906   0.01894   1.12313
   D242       3.08407   0.00045   0.00000   0.01269   0.01267   3.09674
   D243      -1.11889   0.00142   0.00000   0.02651   0.02654  -1.09235
   D244       0.98932   0.00112   0.00000   0.02214   0.02212   1.01144
   D245       0.94884  -0.00072   0.00000  -0.00864  -0.00867   0.94017
   D246       3.02906   0.00025   0.00000   0.00518   0.00520   3.03426
   D247      -1.14592  -0.00005   0.00000   0.00080   0.00078  -1.14514
   D248      -1.08980  -0.00114   0.00000  -0.01458  -0.01459  -1.10439
   D249       0.99042  -0.00017   0.00000  -0.00076  -0.00071   0.98971
   D250       3.09863  -0.00047   0.00000  -0.00513  -0.00514   3.09349
   D251      -1.08418  -0.00036   0.00000  -0.01124  -0.01129  -1.09547
   D252       1.01547  -0.00079   0.00000  -0.01736  -0.01744   0.99802
   D253       3.10033   0.00011   0.00000  -0.00454  -0.00455   3.09578
   D254       1.07862  -0.00009   0.00000   0.00311   0.00316   1.08178
   D255      -3.10492  -0.00052   0.00000  -0.00300  -0.00300  -3.10791
   D256      -1.02005   0.00038   0.00000   0.00982   0.00990  -1.01016
   D257       3.12791   0.00035   0.00000   0.00467   0.00468   3.13258
   D258      -1.05563  -0.00008   0.00000  -0.00145  -0.00148  -1.05711
   D259       1.02923   0.00082   0.00000   0.01138   0.01141   1.04064
         Item               Value     Threshold  Converged?
 Maximum Force            0.031244     0.000450     NO 
 RMS     Force            0.002590     0.000300     NO 
 Maximum Displacement     0.385152     0.001800     NO 
 RMS     Displacement     0.049755     0.001200     NO 
 Predicted change in Energy=-8.156527D-03
 Lowest energy point so far.  Saving SCF results.
 GradGradGradGradGradGradGradGradGradGradGradGradGradGradGradGradGradGrad

 Leave Link  103 at Mon Jul 28 18:40:33 2025, MaxMem=  1073741824 cpu:               1.3 elap:               0.2
 (Enter /app/gaussian/g16/l202.exe)
 Stoichiometry    C27H46O
 Framework group  C1[X(C27H46O)]
 Deg. of freedom   216
 Full point group                 C1      NOp   1
 RotChk:  IX=0 Diff= 1.02D-02
 Largest Abelian subgroup         C1      NOp   1
 Largest concise Abelian subgroup C1      NOp   1
                         Standard orientation:                         
 ---------------------------------------------------------------------
 Center     Atomic      Atomic             Coordinates (Angstroms)
 Number     Number       Type             X           Y           Z
 ---------------------------------------------------------------------
      1          6           0       -0.997994   -0.296454    1.410819
      2          6           0       -0.742945   -0.389459   -0.111500
      3          6           0        0.093875    0.813558   -0.651815
      4          6           0        1.500593    0.950769   -0.038448
      5          6           0        2.305329   -0.364576   -0.260185
      6          6           0        3.737203   -0.314111    0.395344
      7          6           0        3.660652   -0.486525    1.939076
      8          6           0        4.417826    1.029842    0.081060
      9          6           0        3.746487    2.095160   -0.394602
     10          6           0        2.261759    2.140131   -0.657447
     11          6           0        5.913186    1.106672    0.347922
     12          6           0        6.696856   -0.051964   -0.292546
     13          8           0        8.105003   -0.045691    0.109837
     14          6           0        6.105779   -1.393884    0.118216
     15          6           0        4.600565   -1.465819   -0.212790
     16          6           0        1.495268   -1.627389    0.136549
     17          6           0        0.059382   -1.669408   -0.449093
     18          6           0       -0.871638    2.013248   -0.570457
     19          6           0       -2.270012    1.392619   -0.885814
     20          6           0       -2.089420   -0.171849   -0.898883
     21          6           0       -3.378737   -0.920474   -0.446198
     22          6           0       -4.562528   -0.528112   -1.373610
     23          6           0       -5.952112   -1.100543   -1.000897
     24          6           0       -6.457095   -0.791084    0.428203
     25          6           0       -6.562874    0.704089    0.814207
     26          6           0       -7.522174    1.480693   -0.111756
     27          6           0       -6.998674    0.844804    2.290655
     28          6           0       -3.205714   -2.454210   -0.412741
     29          1           0       -1.528533   -1.188165    1.764890
     30          1           0       -0.069352   -0.223588    1.984584
     31          1           0       -1.610126    0.574350    1.671628
     32          1           0        0.254378    0.606946   -1.725243
     33          1           0        1.403955    1.138806    1.040546
     34          1           0        2.475352   -0.431560   -1.349846
     35          1           0        4.639026   -0.339063    2.408274
     36          1           0        2.974472    0.240872    2.386809
     37          1           0        3.322873   -1.492315    2.215748
     38          1           0        4.298234    3.010421   -0.612903
     39          1           0        1.848240    3.083162   -0.271197
     40          1           0        2.087453    2.160960   -1.747121
     41          1           0        6.302470    2.068372   -0.018723
     42          1           0        6.120083    1.083808    1.428711
     43          1           0        6.631131    0.040410   -1.389364
     44          1           0        8.563244    0.777631   -0.155048
     45          1           0        6.643433   -2.199494   -0.399161
     46          1           0        6.288355   -1.544434    1.190635
     47          1           0        4.207066   -2.430569    0.130689
     48          1           0        4.475764   -1.450625   -1.306480
     49          1           0        2.031882   -2.521877   -0.205885
     50          1           0        1.433937   -1.710504    1.228312
     51          1           0        0.111543   -1.776586   -1.543736
     52          1           0       -0.440118   -2.569830   -0.072869
     53          1           0       -0.850762    2.458752    0.433293
     54          1           0       -0.607800    2.810646   -1.274974
     55          1           0       -3.010455    1.689379   -0.131873
     56          1           0       -2.652439    1.743743   -1.851136
     57          1           0       -1.895756   -0.481490   -1.939611
     58          1           0       -3.618347   -0.578119    0.571190
     59          1           0       -4.636483    0.565705   -1.423577
     60          1           0       -4.316063   -0.858956   -2.395400
     61          1           0       -6.681526   -0.720742   -1.730878
     62          1           0       -5.951481   -2.191146   -1.139090
     63          1           0       -7.454981   -1.242009    0.548165
     64          1           0       -5.810288   -1.298079    1.159720
     65          1           0       -5.564016    1.156249    0.722675
     66          1           0       -7.614702    2.525867    0.210090
     67          1           0       -7.178477    1.489318   -1.153102
     68          1           0       -8.525805    1.034993   -0.092975
     69          1           0       -7.998429    0.417349    2.444509
     70          1           0       -6.305212    0.325096    2.964812
     71          1           0       -7.034491    1.898228    2.596893
     72          1           0       -2.490464   -2.769002    0.353142
     73          1           0       -2.853232   -2.831674   -1.381230
     74          1           0       -4.150638   -2.960061   -0.182204
 ---------------------------------------------------------------------
 Rotational constants (GHZ):           0.5268341           0.0605079           0.0583016
 Leave Link  202 at Mon Jul 28 18:40:34 2025, MaxMem=  1073741824 cpu:               0.1 elap:               0.0
 (Enter /app/gaussian/g16/l301.exe)
 Standard basis: 6-31+G (6D, 7F)
 Ernie: Thresh=  0.10000D-02 Tol=  0.10000D-05 Strict=F.
 There are   456 symmetry adapted cartesian basis functions of A   symmetry.
 There are   456 symmetry adapted basis functions of A   symmetry.
   456 basis functions,   912 primitive gaussians,   456 cartesian basis functions
   108 alpha electrons      108 beta electrons
       nuclear repulsion energy      2811.6785806148 Hartrees.
 IExCor=  402 DFT=T Ex+Corr=B3LYP ExCW=0 ScaHFX=  0.200000
 ScaDFX=  0.800000  0.720000  1.000000  0.810000 ScalE2=  1.000000  1.000000
 IRadAn=      5 IRanWt=     -1 IRanGd=            0 ICorTp=0 IEmpDi=  4
 NAtoms=   74 NActive=   74 NUniq=   74 SFac= 1.00D+00 NAtFMM=   60 NAOKFM=T Big=T
 Integral buffers will be    131072 words long.
 Raffenetti 2 integral format.
 Two-electron integral symmetry is turned on.
 Leave Link  301 at Mon Jul 28 18:40:34 2025, MaxMem=  1073741824 cpu:               0.4 elap:               0.1
 (Enter /app/gaussian/g16/l302.exe)
 NPDir=0 NMtPBC=     1 NCelOv=     1 NCel=       1 NClECP=     1 NCelD=      1
         NCelK=      1 NCelE2=     1 NClLst=     1 CellRange=     0.0.
 One-electron integrals computed using PRISM.
 One-electron integral symmetry used in STVInt
 NBasis=   456 RedAO= T EigKep=  1.02D-06  NBF=   456
 NBsUse=   455 1.00D-06 EigRej=  6.02D-07 NBFU=   455
 Precomputing XC quadrature grid using
 IXCGrd= 4 IRadAn=           5 IRanWt=          -1 IRanGd=           0 AccXCQ= 0.00D+00.
 Generated NRdTot=       0 NPtTot=           0 NUsed=           0 NTot=          32
 NSgBfM=   442   441   441   442   442 MxSgAt=    74 MxSgA2=    74.
 Leave Link  302 at Mon Jul 28 18:40:35 2025, MaxMem=  1073741824 cpu:              11.7 elap:               1.5
 (Enter /app/gaussian/g16/l303.exe)
 DipDrv:  MaxL=1.
 Leave Link  303 at Mon Jul 28 18:40:35 2025, MaxMem=  1073741824 cpu:               0.5 elap:               0.1
 (Enter /app/gaussian/g16/l401.exe)
 Initial guess from the checkpoint file:  "/work/scr/Gau-255599.chk"
 B after Tr=     0.000000    0.000000    0.000000
         Rot=    0.999993   -0.003657    0.000545   -0.000637 Ang=  -0.43 deg.
 Guess basis will be translated and rotated to current coordinates.
 JPrj=2 DoOrth=T DoCkMO=T.
 Generating alternative initial guess.
 ExpMin= 4.38D-02 ExpMax= 5.48D+03 ExpMxC= 8.25D+02 IAcc=3 IRadAn=         5 AccDes= 0.00D+00
 Harris functional with IExCor=  402 and IRadAn=       5 diagonalized for initial guess.
 HarFok:  IExCor=  402 AccDes= 0.00D+00 IRadAn=         5 IDoV= 1 UseB2=F ITyADJ=14
 ICtDFT=  3500011 ScaDFX=  1.000000  1.000000  1.000000  1.000000
 FoFCou: FMM=F IPFlag=           0 FMFlag=      100000 FMFlg1=        2001
         NFxFlg=           0 DoJE=T BraDBF=F KetDBF=T FulRan=T
         wScrn=  0.000000 ICntrl=       500 IOpCl=  0 I1Cent=   200000004 NGrid=           0
         NMat0=    1 NMatS0=      1 NMatT0=    0 NMatD0=    1 NMtDS0=    0 NMtDT0=    0
 Petite list used in FoFCou.
 Harris En= -1131.63487405263    
 Leave Link  401 at Mon Jul 28 18:40:45 2025, MaxMem=  1073741824 cpu:              78.7 elap:               9.9
 (Enter /app/gaussian/g16/l502.exe)
 Integral symmetry usage will be decided dynamically.
 Closed shell SCF:
 Using DIIS extrapolation, IDIIS=  1040.
 NGot=  1073741824 LenX=  1073314746 LenY=  1073106354
 Requested convergence on RMS density matrix=1.00D-08 within 128 cycles.
 Requested convergence on MAX density matrix=1.00D-06.
 Requested convergence on             energy=1.00D-06.
 No special actions if energy rises.
 Fock matrices will be formed incrementally for  20 cycles.

 Cycle   1  Pass 1  IDiag  1:
 FoFJK:  IHMeth= 1 ICntrl=       0 DoSepK=F KAlg= 0 I1Cent=           0 FoldK=F
 IRaf= 990000000 NMat=       1 IRICut=       1 DoRegI=T DoRafI=F ISym2E= 0 IDoP0=0 IntGTp=1.
 FoFCou: FMM=T IPFlag=           0 FMFlag=      100000 FMFlg1=        2001
         NFxFlg=           0 DoJE=F BraDBF=F KetDBF=F FulRan=T
         wScrn=  0.000000 ICntrl=         0 IOpCl=  0 I1Cent=           0 NGrid=           0
         NMat0=    1 NMatS0=      1 NMatT0=    0 NMatD0=    1 NMtDS0=    0 NMtDT0=    0
 Symmetry not used in FoFCou.
 FMM levels:  10  Number of levels for PrismC:   9
 E= -1131.54541246021    
 DIIS: error= 7.18D-03 at cycle   1 NSaved=   1.
 NSaved= 1 IEnMin= 1 EnMin= -1131.54541246021     IErMin= 1 ErrMin= 7.18D-03
 ErrMax= 7.18D-03  0.00D+00 EMaxC= 1.00D-01 BMatC= 1.56D-02 BMatP= 1.56D-02
 IDIUse=3 WtCom= 9.28D-01 WtEn= 7.18D-02
 Coeff-Com:  0.100D+01
 Coeff-En:   0.100D+01
 Coeff:      0.100D+01
 Gap=     0.521 Goal=   None    Shift=    0.000
 GapD=    0.521 DampG=2.000 DampE=1.000 DampFc=2.0000 IDamp=-1.
 RMSDP=6.40D-02 MaxDP=8.73D+00              OVMax= 1.97D-02

 Cycle   2  Pass 1  IDiag  1:
 RMSU=  6.39D-02    CP:  9.60D-01
 E= -1131.55650696924     Delta-E=       -0.011094509038 Rises=F Damp=F
 DIIS: error= 4.18D-04 at cycle   2 NSaved=   2.
 NSaved= 2 IEnMin= 2 EnMin= -1131.55650696924     IErMin= 2 ErrMin= 4.18D-04
 ErrMax= 4.18D-04  0.00D+00 EMaxC= 1.00D-01 BMatC= 1.63D-04 BMatP= 1.56D-02
 IDIUse=3 WtCom= 9.96D-01 WtEn= 4.18D-03
 Coeff-Com:  0.278D-02 0.997D+00
 Coeff-En:   0.000D+00 0.100D+01
 Coeff:      0.277D-02 0.997D+00
 Gap=     0.230 Goal=   None    Shift=    0.000
 RMSDP=2.87D-03 MaxDP=4.02D-01 DE=-1.11D-02 OVMax= 3.94D-03

 Cycle   3  Pass 1  IDiag  1:
 RMSU=  1.41D-03    CP:  9.56D-01  1.04D+00
 E= -1131.55642085923     Delta-E=        0.000086110013 Rises=F Damp=F
 DIIS: error= 6.31D-04 at cycle   3 NSaved=   3.
 NSaved= 3 IEnMin= 2 EnMin= -1131.55650696924     IErMin= 2 ErrMin= 4.18D-04
 ErrMax= 6.31D-04  0.00D+00 EMaxC= 1.00D-01 BMatC= 2.89D-04 BMatP= 1.63D-04
 IDIUse=3 WtCom= 2.85D-01 WtEn= 7.15D-01
 Coeff-Com: -0.846D-02 0.579D+00 0.429D+00
 Coeff-En:   0.000D+00 0.594D+00 0.406D+00
 Coeff:     -0.241D-02 0.590D+00 0.412D+00
 Gap=     0.231 Goal=   None    Shift=    0.000
 RMSDP=9.22D-04 MaxDP=6.85D-02 DE= 8.61D-05 OVMax= 2.71D-03

 Cycle   4  Pass 1  IDiag  1:
 RMSU=  5.41D-04    CP:  9.61D-01  1.04D+00  6.22D-01
 E= -1131.55668924125     Delta-E=       -0.000268382019 Rises=F Damp=F
 DIIS: error= 1.04D-04 at cycle   4 NSaved=   4.
 NSaved= 4 IEnMin= 4 EnMin= -1131.55668924125     IErMin= 4 ErrMin= 1.04D-04
 ErrMax= 1.04D-04  0.00D+00 EMaxC= 1.00D-01 BMatC= 3.78D-06 BMatP= 1.63D-04
 IDIUse=3 WtCom= 9.99D-01 WtEn= 1.04D-03
 Coeff-Com: -0.346D-02 0.182D+00 0.159D+00 0.662D+00
 Coeff-En:   0.000D+00 0.000D+00 0.000D+00 0.100D+01
 Coeff:     -0.346D-02 0.182D+00 0.159D+00 0.663D+00
 Gap=     0.231 Goal=   None    Shift=    0.000
 RMSDP=1.49D-04 MaxDP=8.36D-03 DE=-2.68D-04 OVMax= 6.22D-04

 Cycle   5  Pass 1  IDiag  1:
 RMSU=  1.23D-04    CP:  9.61D-01  1.05D+00  5.93D-01  8.96D-01
 E= -1131.55669126637     Delta-E=       -0.000002025117 Rises=F Damp=F
 DIIS: error= 5.52D-05 at cycle   5 NSaved=   5.
 NSaved= 5 IEnMin= 5 EnMin= -1131.55669126637     IErMin= 5 ErrMin= 5.52D-05
 ErrMax= 5.52D-05  0.00D+00 EMaxC= 1.00D-01 BMatC= 1.58D-06 BMatP= 3.78D-06
 IDIUse=1 WtCom= 1.00D+00 WtEn= 0.00D+00
 Coeff-Com: -0.634D-03 0.102D-01 0.239D-01 0.402D+00 0.564D+00
 Coeff:     -0.634D-03 0.102D-01 0.239D-01 0.402D+00 0.564D+00
 Gap=     0.231 Goal=   None    Shift=    0.000
 RMSDP=5.14D-05 MaxDP=3.87D-03 DE=-2.03D-06 OVMax= 4.33D-04

 Cycle   6  Pass 1  IDiag  1:
 RMSU=  4.18D-05    CP:  9.61D-01  1.04D+00  5.99D-01  8.61D-01  8.58D-01
 E= -1131.55669270744     Delta-E=       -0.000001441070 Rises=F Damp=F
 DIIS: error= 1.64D-05 at cycle   6 NSaved=   6.
 NSaved= 6 IEnMin= 6 EnMin= -1131.55669270744     IErMin= 6 ErrMin= 1.64D-05
 ErrMax= 1.64D-05  0.00D+00 EMaxC= 1.00D-01 BMatC= 7.22D-08 BMatP= 1.58D-06
 IDIUse=1 WtCom= 1.00D+00 WtEn= 0.00D+00
 Coeff-Com: -0.124D-03-0.518D-02 0.303D-02 0.164D+00 0.282D+00 0.556D+00
 Coeff:     -0.124D-03-0.518D-02 0.303D-02 0.164D+00 0.282D+00 0.556D+00
 Gap=     0.231 Goal=   None    Shift=    0.000
 RMSDP=2.04D-05 MaxDP=1.42D-03 DE=-1.44D-06 OVMax= 1.90D-04

 Cycle   7  Pass 1  IDiag  1:
 RMSU=  1.02D-05    CP:  9.61D-01  1.04D+00  6.00D-01  8.83D-01  8.42D-01
                    CP:  7.25D-01
 E= -1131.55669277209     Delta-E=       -0.000000064650 Rises=F Damp=F
 DIIS: error= 8.34D-06 at cycle   7 NSaved=   7.
 NSaved= 7 IEnMin= 7 EnMin= -1131.55669277209     IErMin= 7 ErrMin= 8.34D-06
 ErrMax= 8.34D-06  0.00D+00 EMaxC= 1.00D-01 BMatC= 1.68D-08 BMatP= 7.22D-08
 IDIUse=1 WtCom= 1.00D+00 WtEn= 0.00D+00
 Coeff-Com:  0.210D-04-0.530D-02-0.202D-02 0.446D-01 0.957D-01 0.353D+00
 Coeff-Com:  0.514D+00
 Coeff:      0.210D-04-0.530D-02-0.202D-02 0.446D-01 0.957D-01 0.353D+00
 Coeff:      0.514D+00
 Gap=     0.231 Goal=   None    Shift=    0.000
 RMSDP=5.82D-06 MaxDP=2.97D-04 DE=-6.47D-08 OVMax= 6.74D-05

 Cycle   8  Pass 1  IDiag  1:
 RMSU=  3.60D-06    CP:  9.61D-01  1.04D+00  6.01D-01  8.87D-01  8.33D-01
                    CP:  7.04D-01  7.36D-01
 E= -1131.55669278942     Delta-E=       -0.000000017330 Rises=F Damp=F
 DIIS: error= 7.90D-07 at cycle   8 NSaved=   8.
 NSaved= 8 IEnMin= 8 EnMin= -1131.55669278942     IErMin= 8 ErrMin= 7.90D-07
 ErrMax= 7.90D-07  0.00D+00 EMaxC= 1.00D-01 BMatC= 4.81D-10 BMatP= 1.68D-08
 IDIUse=1 WtCom= 1.00D+00 WtEn= 0.00D+00
 Coeff-Com:  0.148D-04-0.243D-02-0.115D-02 0.157D-01 0.367D-01 0.157D+00
 Coeff-Com:  0.261D+00 0.533D+00
 Coeff:      0.148D-04-0.243D-02-0.115D-02 0.157D-01 0.367D-01 0.157D+00
 Coeff:      0.261D+00 0.533D+00
 Gap=     0.231 Goal=   None    Shift=    0.000
 RMSDP=1.50D-06 MaxDP=9.62D-05 DE=-1.73D-08 OVMax= 7.18D-06

 Cycle   9  Pass 1  IDiag  1:
 RMSU=  9.71D-07    CP:  9.61D-01  1.04D+00  6.02D-01  8.87D-01  8.32D-01
                    CP:  7.09D-01  6.97D-01  8.18D-01
 E= -1131.55669279006     Delta-E=       -0.000000000643 Rises=F Damp=F
 DIIS: error= 1.52D-07 at cycle   9 NSaved=   9.
 NSaved= 9 IEnMin= 9 EnMin= -1131.55669279006     IErMin= 9 ErrMin= 1.52D-07
 ErrMax= 1.52D-07  0.00D+00 EMaxC= 1.00D-01 BMatC= 3.78D-11 BMatP= 4.81D-10
 IDIUse=1 WtCom= 1.00D+00 WtEn= 0.00D+00
 Coeff-Com:  0.429D-05-0.439D-03-0.290D-03 0.129D-02 0.413D-02 0.251D-01
 Coeff-Com:  0.512D-01 0.247D+00 0.672D+00
 Coeff:      0.429D-05-0.439D-03-0.290D-03 0.129D-02 0.413D-02 0.251D-01
 Coeff:      0.512D-01 0.247D+00 0.672D+00
 Gap=     0.231 Goal=   None    Shift=    0.000
 RMSDP=4.99D-07 MaxDP=2.78D-05 DE=-6.43D-10 OVMax= 1.49D-06

 Cycle  10  Pass 1  IDiag  1:
 RMSU=  3.30D-07    CP:  9.61D-01  1.04D+00  6.02D-01  8.87D-01  8.34D-01
                    CP:  7.10D-01  6.99D-01  8.23D-01  8.66D-01
 E= -1131.55669278981     Delta-E=        0.000000000248 Rises=F Damp=F
 DIIS: error= 3.83D-08 at cycle  10 NSaved=  10.
 NSaved=10 IEnMin= 9 EnMin= -1131.55669279006     IErMin=10 ErrMin= 3.83D-08
 ErrMax= 3.83D-08  0.00D+00 EMaxC= 1.00D-01 BMatC= 1.80D-12 BMatP= 3.78D-11
 IDIUse=1 WtCom= 1.00D+00 WtEn= 0.00D+00
 Coeff-Com:  0.672D-06-0.133D-04-0.372D-04-0.481D-03-0.693D-03-0.294D-03
 Coeff-Com:  0.317D-02 0.599D-01 0.256D+00 0.682D+00
 Coeff:      0.672D-06-0.133D-04-0.372D-04-0.481D-03-0.693D-03-0.294D-03
 Coeff:      0.317D-02 0.599D-01 0.256D+00 0.682D+00
 Gap=     0.231 Goal=   None    Shift=    0.000
 RMSDP=1.26D-07 MaxDP=1.20D-05 DE= 2.48D-10 OVMax= 2.41D-07

 Cycle  11  Pass 1  IDiag  1:
 RMSU=  6.86D-08    CP:  9.61D-01  1.04D+00  6.02D-01  8.87D-01  8.34D-01
                    CP:  7.10D-01  7.02D-01  8.31D-01  8.68D-01  7.96D-01
 E= -1131.55669278994     Delta-E=       -0.000000000131 Rises=F Damp=F
 DIIS: error= 1.43D-08 at cycle  11 NSaved=  11.
 NSaved=11 IEnMin= 9 EnMin= -1131.55669279006     IErMin=11 ErrMin= 1.43D-08
 ErrMax= 1.43D-08  0.00D+00 EMaxC= 1.00D-01 BMatC= 2.63D-13 BMatP= 1.80D-12
 IDIUse=1 WtCom= 1.00D+00 WtEn= 0.00D+00
 Coeff-Com: -0.447D-07 0.325D-04 0.826D-05-0.351D-03-0.700D-03-0.234D-02
 Coeff-Com: -0.294D-02 0.847D-02 0.682D-01 0.332D+00 0.598D+00
 Coeff:     -0.447D-07 0.325D-04 0.826D-05-0.351D-03-0.700D-03-0.234D-02
 Coeff:     -0.294D-02 0.847D-02 0.682D-01 0.332D+00 0.598D+00
 Gap=     0.231 Goal=   None    Shift=    0.000
 RMSDP=3.09D-08 MaxDP=2.00D-06 DE=-1.31D-10 OVMax= 7.55D-08

 Cycle  12  Pass 1  IDiag  1:
 RMSU=  2.31D-08    CP:  9.61D-01  1.04D+00  6.02D-01  8.87D-01  8.34D-01
                    CP:  7.10D-01  7.02D-01  8.34D-01  8.64D-01  7.98D-01
                    CP:  8.04D-01
 E= -1131.55669279010     Delta-E=       -0.000000000156 Rises=F Damp=F
 DIIS: error= 2.34D-09 at cycle  12 NSaved=  12.
 NSaved=12 IEnMin=12 EnMin= -1131.55669279010     IErMin=12 ErrMin= 2.34D-09
 ErrMax= 2.34D-09  0.00D+00 EMaxC= 1.00D-01 BMatC= 1.02D-14 BMatP= 2.63D-13
 IDIUse=1 WtCom= 1.00D+00 WtEn= 0.00D+00
 Coeff-Com: -0.611D-07 0.129D-04 0.605D-05-0.961D-04-0.210D-03-0.846D-03
 Coeff-Com: -0.136D-02-0.101D-02 0.698D-02 0.763D-01 0.226D+00 0.694D+00
 Coeff:     -0.611D-07 0.129D-04 0.605D-05-0.961D-04-0.210D-03-0.846D-03
 Coeff:     -0.136D-02-0.101D-02 0.698D-02 0.763D-01 0.226D+00 0.694D+00
 Gap=     0.231 Goal=   None    Shift=    0.000
 RMSDP=1.10D-08 MaxDP=6.87D-07 DE=-1.56D-10 OVMax= 1.71D-08

 Cycle  13  Pass 1  IDiag  1:
 RMSU=  7.64D-09    CP:  9.61D-01  1.04D+00  6.02D-01  8.87D-01  8.34D-01
                    CP:  7.10D-01  7.02D-01  8.34D-01  8.67D-01  8.09D-01
                    CP:  7.89D-01  7.57D-01
 E= -1131.55669278996     Delta-E=        0.000000000139 Rises=F Damp=F
 DIIS: error= 9.08D-10 at cycle  13 NSaved=  13.
 NSaved=13 IEnMin=12 EnMin= -1131.55669279010     IErMin=13 ErrMin= 9.08D-10
 ErrMax= 9.08D-10  0.00D+00 EMaxC= 1.00D-01 BMatC= 7.23D-16 BMatP= 1.02D-14
 IDIUse=1 WtCom= 1.00D+00 WtEn= 0.00D+00
 Coeff-Com: -0.225D-07 0.353D-05 0.210D-05-0.205D-04-0.476D-04-0.213D-03
 Coeff-Com: -0.392D-03-0.832D-03-0.854D-03 0.130D-01 0.592D-01 0.281D+00
 Coeff-Com:  0.649D+00
 Coeff:     -0.225D-07 0.353D-05 0.210D-05-0.205D-04-0.476D-04-0.213D-03
 Coeff:     -0.392D-03-0.832D-03-0.854D-03 0.130D-01 0.592D-01 0.281D+00
 Coeff:      0.649D+00
 Gap=     0.231 Goal=   None    Shift=    0.000
 RMSDP=2.54D-09 MaxDP=2.04D-07 DE= 1.39D-10 OVMax= 5.07D-09

 SCF Done:  E(RB3LYP) =  -1131.55669279     A.U. after   13 cycles
            NFock= 13  Conv=0.25D-08     -V/T= 2.0059
 KE= 1.124876482765D+03 PE=-8.245093647713D+03 EE= 3.176981891543D+03
 Leave Link  502 at Mon Jul 28 18:45:02 2025, MaxMem=  1073741824 cpu:            2045.2 elap:             256.5
 (Enter /app/gaussian/g16/l701.exe)
 ... and contract with generalized density number  0.
 Compute integral first derivatives.
 Leave Link  701 at Mon Jul 28 18:45:02 2025, MaxMem=  1073741824 cpu:               1.9 elap:               0.3
 (Enter /app/gaussian/g16/l702.exe)
 L702 exits ... SP integral derivatives will be done elsewhere.
 Leave Link  702 at Mon Jul 28 18:45:02 2025, MaxMem=  1073741824 cpu:               0.1 elap:               0.0
 (Enter /app/gaussian/g16/l703.exe)
 Integral derivatives from FoFJK, PRISM(SPDF).
 Compute integral first derivatives, UseDBF=F ICtDFT=           0.
 Calling FoFJK, ICntrl=      2127 FMM=T ISym2X=0 I1Cent= 0 IOpClX= 0 NMat=1 NMatS=1 NMatT=0.
 FoFJK:  IHMeth= 1 ICntrl=    2127 DoSepK=F KAlg= 0 I1Cent=           0 FoldK=F
 IRaf=         0 NMat=       1 IRICut=       1 DoRegI=T DoRafI=F ISym2E= 0 IDoP0=0 IntGTp=1.
 FoFCou: FMM=T IPFlag=           0 FMFlag=      100000 FMFlg1=        2001
         NFxFlg=           0 DoJE=F BraDBF=F KetDBF=F FulRan=T
         wScrn=  0.000000 ICntrl=      2127 IOpCl=  0 I1Cent=           0 NGrid=           0
         NMat0=    1 NMatS0=      1 NMatT0=    0 NMatD0=    1 NMtDS0=    0 NMtDT0=    0
 Symmetry not used in FoFCou.
 FMM levels:  10  Number of levels for PrismC:   9
 Leave Link  703 at Mon Jul 28 18:45:53 2025, MaxMem=  1073741824 cpu:             407.1 elap:              51.0
 (Enter /app/gaussian/g16/l716.exe)
 Dipole        =-5.66099335D-01 4.47721510D-01-3.20970445D-01
 ***** Axes restored to original set *****
 -------------------------------------------------------------------
 Center     Atomic                   Forces (Hartrees/Bohr)
 Number     Number              X              Y              Z
 -------------------------------------------------------------------
      1        6           0.000351349   -0.001276730    0.001852342
      2        6          -0.000360052    0.001165628   -0.000236339
      3        6          -0.000706057   -0.000744709    0.000779718
      4        6           0.000758703    0.000676097    0.000292281
      5        6           0.000385550    0.000272410   -0.000219555
      6        6           0.001835069   -0.000240306    0.000799920
      7        6          -0.000840964   -0.000743071    0.002720513
      8        6          -0.000078336    0.001045424   -0.000674496
      9        6           0.000596121    0.000377526    0.000015102
     10        6          -0.001451399   -0.000466600    0.000441013
     11        6          -0.002629337   -0.003695704   -0.000005760
     12        6           0.006208787   -0.000011224   -0.004711919
     13        8          -0.001165871    0.000985375    0.002260511
     14        6          -0.002732822    0.001525931    0.002442000
     15        6          -0.001899143    0.001188672   -0.000424315
     16        6           0.001064150    0.000210341   -0.000693094
     17        6          -0.000562189    0.000796087    0.000282118
     18        6           0.000703317    0.000123827   -0.000561315
     19        6          -0.001829880    0.000139530   -0.000447282
     20        6           0.000936537   -0.000469749   -0.000387614
     21        6          -0.001262705    0.000198816    0.000128196
     22        6           0.000996071   -0.000300751   -0.000236865
     23        6           0.000473544    0.000397377   -0.000449727
     24        6          -0.000478256    0.000890138   -0.000042430
     25        6           0.000357069   -0.000857007    0.000477712
     26        6          -0.000235862   -0.000699710   -0.000447221
     27        6          -0.000452939   -0.000068946   -0.000528093
     28        6           0.000296610   -0.000160482    0.002090363
     29        1           0.000195791   -0.000033590    0.000033073
     30        1          -0.000129907    0.000180735   -0.000200272
     31        1          -0.000136808    0.000209448   -0.000295302
     32        1           0.000485515    0.000874609   -0.000366669
     33        1          -0.000205628   -0.000122882    0.000679591
     34        1          -0.000173154   -0.000610194   -0.000450291
     35        1           0.000139550    0.000015893   -0.000706534
     36        1           0.000169287    0.000170444   -0.000486278
     37        1          -0.000149035   -0.000114956   -0.000798957
     38        1          -0.000412633   -0.000002498   -0.000073557
     39        1          -0.000246793    0.000014037   -0.000612920
     40        1           0.000518537    0.000064694   -0.000209391
     41        1           0.000703144    0.000484499    0.000145392
     42        1           0.000304357    0.000856507    0.000581518
     43        1          -0.001665361   -0.000547650   -0.000247541
     44        1           0.001971977    0.000432030   -0.000360279
     45        1           0.000689314   -0.000314905   -0.000118960
     46        1           0.000921746   -0.000584862   -0.000040717
     47        1          -0.000462215   -0.000253686   -0.000020596
     48        1          -0.000288819   -0.000598706   -0.000146299
     49        1           0.000370751    0.000007566    0.000250308
     50        1           0.000633756   -0.000434832   -0.000507249
     51        1          -0.000121318   -0.000456939   -0.000388189
     52        1           0.000017672   -0.000329013   -0.000032160
     53        1           0.000364007    0.000143539    0.000355524
     54        1          -0.000003140    0.000324439    0.000078980
     55        1          -0.000264164    0.000123911    0.000613734
     56        1          -0.000488647   -0.000473655    0.000089710
     57        1          -0.000736718    0.000489506   -0.000422460
     58        1           0.000234920   -0.000148905    0.000688934
     59        1           0.000054356    0.000146470    0.000894661
     60        1           0.000411073    0.000262869   -0.000169685
     61        1          -0.000316013   -0.000394653   -0.000196552
     62        1          -0.000079785   -0.000573574    0.000550570
     63        1           0.000125130    0.000569675   -0.000127434
     64        1          -0.000306165   -0.000517765   -0.000209473
     65        1          -0.000593039   -0.000136822   -0.000457928
     66        1          -0.000023199   -0.000023067    0.000357081
     67        1          -0.000253824    0.000415557    0.000643654
     68        1           0.000347845    0.000181060    0.000321605
     69        1           0.000388171    0.000286945   -0.000041017
     70        1           0.000013790    0.000450866   -0.000472980
     71        1           0.000116361    0.000263969   -0.000460119
     72        1          -0.000391605   -0.000145548   -0.000855933
     73        1          -0.000161667    0.000149944   -0.000522582
     74        1           0.000155525   -0.000558697   -0.000801778
 -------------------------------------------------------------------
 Cartesian Forces:  Max     0.006208787 RMS     0.000912874
 Leave Link  716 at Mon Jul 28 18:45:53 2025, MaxMem=  1073741824 cpu:               0.2 elap:               0.0
 (Enter /app/gaussian/g16/l103.exe)

 GradGradGradGradGradGradGradGradGradGradGradGradGradGradGradGradGradGrad
 Berny optimization.
 Using GEDIIS/GDIIS optimizer.
 FormGI is forming the generalized inverse of G from B-inverse, IUseBI=4.
 Internal  Forces:  Max     0.003450870 RMS     0.000460549
 Search for a local minimum.
 Step number   2 out of a maximum of  444
 All quantities printed in internal units (Hartrees-Bohrs-Radians)
 RMS Force = .46055D-03 SwitMx=.10000D-02 MixMth= 2
 Mixed Optimization -- En-DIIS/RFO-DIIS
 Update second derivatives using D2CorX and points    1    2
 DE= -6.82D-03 DEPred=-8.16D-03 R= 8.36D-01
 TightC=F SS=  1.41D+00  RLast= 3.37D-01 DXNew= 5.0454D-01 1.0117D+00
 Trust test= 8.36D-01 RLast= 3.37D-01 DXMaxT set to 5.05D-01
 ITU=  1  0
 Use linear search instead of GDIIS.
     Eigenvalues ---    0.00230   0.00230   0.00230   0.00230   0.00232
     Eigenvalues ---    0.00299   0.00327   0.00332   0.00351   0.00354
     Eigenvalues ---    0.00382   0.00426   0.00448   0.00498   0.00557
     Eigenvalues ---    0.00571   0.00665   0.00979   0.01111   0.01347
     Eigenvalues ---    0.01416   0.01634   0.01693   0.02182   0.02313
     Eigenvalues ---    0.02377   0.02744   0.03047   0.03089   0.03103
     Eigenvalues ---    0.03128   0.03225   0.03310   0.03446   0.03505
     Eigenvalues ---    0.03582   0.03696   0.03803   0.03820   0.04164
     Eigenvalues ---    0.04237   0.04315   0.04448   0.04608   0.04615
     Eigenvalues ---    0.04645   0.04673   0.04686   0.04691   0.04714
     Eigenvalues ---    0.04748   0.04773   0.04844   0.04906   0.04922
     Eigenvalues ---    0.04938   0.04999   0.05106   0.05223   0.05246
     Eigenvalues ---    0.05322   0.05379   0.05385   0.05400   0.05404
     Eigenvalues ---    0.05424   0.05450   0.05453   0.05489   0.05515
     Eigenvalues ---    0.05552   0.05567   0.05638   0.05738   0.05817
     Eigenvalues ---    0.05945   0.06103   0.06539   0.06913   0.07026
     Eigenvalues ---    0.07267   0.07399   0.07467   0.07800   0.08122
     Eigenvalues ---    0.08198   0.08201   0.08554   0.08718   0.08947
     Eigenvalues ---    0.08950   0.08997   0.09312   0.09446   0.09550
     Eigenvalues ---    0.10068   0.10328   0.10791   0.11369   0.11958
     Eigenvalues ---    0.12639   0.12649   0.12657   0.12892   0.13760
     Eigenvalues ---    0.13900   0.13975   0.14899   0.15643   0.15831
     Eigenvalues ---    0.16000   0.16000   0.16000   0.16000   0.16000
     Eigenvalues ---    0.16000   0.16000   0.16000   0.16000   0.16000
     Eigenvalues ---    0.16000   0.16000   0.16000   0.16000   0.16000
     Eigenvalues ---    0.16326   0.16469   0.16611   0.16865   0.16998
     Eigenvalues ---    0.17112   0.17745   0.18239   0.19220   0.19801
     Eigenvalues ---    0.21576   0.21833   0.21938   0.21965   0.22093
     Eigenvalues ---    0.22608   0.24400   0.24947   0.26035   0.26105
     Eigenvalues ---    0.26893   0.26955   0.26997   0.27329   0.27345
     Eigenvalues ---    0.27723   0.27867   0.27908   0.28370   0.28470
     Eigenvalues ---    0.28527   0.28683   0.28816   0.28908   0.29025
     Eigenvalues ---    0.29198   0.29290   0.29338   0.29432   0.29490
     Eigenvalues ---    0.30105   0.30912   0.31979   0.33299   0.33422
     Eigenvalues ---    0.33562   0.33819   0.33838   0.33891   0.33917
     Eigenvalues ---    0.33942   0.33952   0.33988   0.34007   0.34012
     Eigenvalues ---    0.34018   0.34023   0.34025   0.34044   0.34071
     Eigenvalues ---    0.34090   0.34125   0.34128   0.34133   0.34137
     Eigenvalues ---    0.34138   0.34152   0.34159   0.34199   0.34205
     Eigenvalues ---    0.34223   0.34229   0.34229   0.34233   0.34247
     Eigenvalues ---    0.34254   0.34258   0.34260   0.34286   0.34292
     Eigenvalues ---    0.34314   0.34357   0.34390   0.34447   0.34457
     Eigenvalues ---    0.34518   0.34676   0.34997   0.41314   0.52874
     Eigenvalues ---    0.53419
 RFO step:  Lambda=-9.83315855D-04 EMin= 2.29936788D-03
 Quartic linear search produced a step of -0.05831.
 Iteration  1 RMS(Cart)=  0.05182603 RMS(Int)=  0.00070870
 Iteration  2 RMS(Cart)=  0.00129239 RMS(Int)=  0.00001950
 Iteration  3 RMS(Cart)=  0.00000085 RMS(Int)=  0.00001949
 ITry= 1 IFail=0 DXMaxC= 3.10D-01 DCOld= 1.00D+10 DXMaxT= 5.05D-01 DXLimC= 3.00D+00 Rises=F
 Variable       Old X    -DE/DX   Delta X   Delta X   Delta X     New X
                                 (Linear)    (Quad)   (Total)
    R1        2.92215   0.00168   0.00013   0.00541   0.00554   2.92769
    R2        2.07180   0.00008  -0.00020   0.00055   0.00036   2.07216
    R3        2.06741  -0.00002  -0.00010   0.00011   0.00001   2.06742
    R4        2.07098  -0.00023  -0.00016  -0.00036  -0.00052   2.07046
    R5        2.95152  -0.00033  -0.00143   0.00145  -0.00000   2.95151
    R6        2.92509  -0.00071  -0.00087  -0.00085  -0.00173   2.92336
    R7        2.97614  -0.00088  -0.00144   0.00037  -0.00107   2.97507
    R8        2.91159  -0.00146  -0.00079  -0.00225  -0.00304   2.90855
    R9        2.91416  -0.00059  -0.00244   0.00222  -0.00022   2.91394
   R10        2.08787   0.00073  -0.00016   0.00232   0.00216   2.09003
   R11        2.94391  -0.00066  -0.00048  -0.00150  -0.00198   2.94193
   R12        2.91356   0.00069  -0.00053   0.00280   0.00228   2.91584
   R13        2.07778   0.00062  -0.00040   0.00239   0.00200   2.07977
   R14        2.97746   0.00032   0.00064   0.00045   0.00108   2.97854
   R15        2.93260   0.00025  -0.00026   0.00077   0.00050   2.93311
   R16        2.08792   0.00015  -0.00028   0.00092   0.00064   2.08855
   R17        2.93893   0.00089  -0.00084   0.00445   0.00361   2.94254
   R18        2.90811   0.00036  -0.00024   0.00278   0.00251   2.91062
   R19        2.95285   0.00124  -0.00048   0.00655   0.00605   2.95890
   R20        2.06932  -0.00033   0.00001  -0.00092  -0.00091   2.06841
   R21        2.07045  -0.00009  -0.00009  -0.00009  -0.00018   2.07027
   R22        2.07204  -0.00061  -0.00018  -0.00137  -0.00154   2.07049
   R23        2.54367  -0.00113  -0.00010  -0.00167  -0.00177   2.54189
   R24        2.87414  -0.00081  -0.00082  -0.00087  -0.00170   2.87244
   R25        2.85062  -0.00143  -0.00133  -0.00204  -0.00336   2.84726
   R26        2.06126   0.00022  -0.00027   0.00105   0.00078   2.06205
   R27        2.07826  -0.00012  -0.00033   0.00024  -0.00010   2.07817
   R28        2.08574   0.00032  -0.00073   0.00213   0.00141   2.08714
   R29        2.90722  -0.00041  -0.00099  -0.00092  -0.00190   2.90532
   R30        2.07942  -0.00062  -0.00029  -0.00122  -0.00151   2.07791
   R31        2.07993   0.00012  -0.00037   0.00098   0.00061   2.08054
   R32        2.76755  -0.00066  -0.00424   0.00580   0.00156   2.76911
   R33        2.87763   0.00055   0.00023   0.00062   0.00086   2.87849
   R34        2.08373  -0.00012  -0.00062   0.00074   0.00012   2.08385
   R35        1.84962  -0.00085  -0.00067  -0.00036  -0.00103   1.84860
   R36        2.91558  -0.00160  -0.00160  -0.00248  -0.00407   2.91151
   R37        2.07505  -0.00060  -0.00010  -0.00148  -0.00159   2.07346
   R38        2.07533  -0.00008  -0.00013   0.00001  -0.00012   2.07521
   R39        2.07316  -0.00032  -0.00006  -0.00078  -0.00084   2.07232
   R40        2.08039  -0.00014  -0.00025   0.00002  -0.00022   2.08016
   R41        2.93152  -0.00135  -0.00136  -0.00312  -0.00449   2.92703
   R42        2.07468  -0.00019  -0.00022  -0.00014  -0.00036   2.07431
   R43        2.07235  -0.00033  -0.00031  -0.00037  -0.00068   2.07166
   R44        2.08080   0.00012  -0.00037   0.00097   0.00060   2.08140
   R45        2.07165  -0.00022  -0.00037   0.00002  -0.00035   2.07130
   R46        2.95190  -0.00182  -0.00319  -0.00081  -0.00398   2.94791
   R47        2.07563   0.00012  -0.00029   0.00084   0.00055   2.07618
   R48        2.07164  -0.00021  -0.00016  -0.00029  -0.00045   2.07119
   R49        2.97615  -0.00049  -0.00174   0.00146  -0.00027   2.97588
   R50        2.07418   0.00011  -0.00018   0.00062   0.00044   2.07462
   R51        2.07128  -0.00032  -0.00002  -0.00084  -0.00086   2.07043
   R52        2.94440  -0.00052   0.00009  -0.00195  -0.00186   2.94254
   R53        2.08427   0.00074  -0.00022   0.00246   0.00224   2.08651
   R54        2.93693   0.00080  -0.00008   0.00288   0.00280   2.93973
   R55        2.91741  -0.00066  -0.00137   0.00028  -0.00109   2.91632
   R56        2.07844   0.00065  -0.00043   0.00254   0.00211   2.08055
   R57        2.92605  -0.00119  -0.00144  -0.00137  -0.00281   2.92324
   R58        2.07388  -0.00051  -0.00027  -0.00093  -0.00120   2.07269
   R59        2.08235   0.00021  -0.00042   0.00130   0.00088   2.08323
   R60        2.92334  -0.00148  -0.00152  -0.00214  -0.00366   2.91968
   R61        2.07798  -0.00008  -0.00029   0.00028  -0.00001   2.07797
   R62        2.07742  -0.00039  -0.00035  -0.00047  -0.00082   2.07660
   R63        2.92494   0.00023  -0.00082   0.00219   0.00136   2.92631
   R64        2.08171   0.00028  -0.00038   0.00145   0.00106   2.08277
   R65        2.07915  -0.00002  -0.00036   0.00056   0.00020   2.07935
   R66        2.91580  -0.00071  -0.00154   0.00042  -0.00112   2.91469
   R67        2.92121  -0.00169  -0.00162  -0.00261  -0.00422   2.91699
   R68        2.07917   0.00071  -0.00046   0.00273   0.00228   2.08144
   R69        2.07400  -0.00002  -0.00024   0.00037   0.00013   2.07413
   R70        2.07234  -0.00036  -0.00028  -0.00049  -0.00077   2.07156
   R71        2.07550   0.00046  -0.00036   0.00187   0.00151   2.07701
   R72        2.07517   0.00042  -0.00031   0.00170   0.00139   2.07656
   R73        2.07481  -0.00027  -0.00031  -0.00021  -0.00052   2.07428
   R74        2.07420  -0.00019  -0.00028  -0.00005  -0.00033   2.07387
   R75        2.06772  -0.00033  -0.00031  -0.00035  -0.00066   2.06706
   R76        2.07414   0.00051  -0.00030   0.00191   0.00161   2.07575
   R77        2.07174  -0.00043  -0.00031  -0.00064  -0.00096   2.07079
    A1        1.92712   0.00021   0.00058   0.00056   0.00115   1.92827
    A2        1.96093  -0.00033   0.00042  -0.00264  -0.00222   1.95871
    A3        1.95434  -0.00040   0.00040  -0.00345  -0.00305   1.95128
    A4        1.87084   0.00014  -0.00063   0.00263   0.00200   1.87284
    A5        1.87457   0.00009  -0.00038   0.00106   0.00069   1.87526
    A6        1.87170   0.00034  -0.00051   0.00227   0.00176   1.87347
    A7        1.96342  -0.00015   0.00111  -0.00210  -0.00098   1.96243
    A8        1.92830   0.00019  -0.00005   0.00545   0.00541   1.93371
    A9        1.92076   0.00023   0.00087   0.00156   0.00243   1.92319
   A10        1.85850   0.00017  -0.00042  -0.00049  -0.00092   1.85758
   A11        1.75045  -0.00027  -0.00085  -0.00374  -0.00458   1.74587
   A12        2.03574  -0.00023  -0.00071  -0.00188  -0.00260   2.03314
   A13        2.00429   0.00016  -0.00082   0.00742   0.00661   2.01090
   A14        1.81884   0.00018  -0.00019   0.00124   0.00106   1.81991
   A15        1.84408  -0.00024   0.00229  -0.01143  -0.00914   1.83494
   A16        2.07299  -0.00038  -0.00096  -0.00073  -0.00168   2.07131
   A17        1.84501   0.00027   0.00075   0.00063   0.00141   1.84642
   A18        1.86261   0.00001  -0.00073   0.00088   0.00015   1.86276
   A19        1.91748  -0.00012  -0.00029  -0.00157  -0.00188   1.91560
   A20        1.93865  -0.00047  -0.00032  -0.00540  -0.00571   1.93294
   A21        1.90250   0.00023   0.00023   0.00425   0.00448   1.90698
   A22        1.91682   0.00025   0.00028  -0.00128  -0.00102   1.91581
   A23        1.90655  -0.00009   0.00031  -0.00067  -0.00036   1.90619
   A24        1.88121   0.00021  -0.00020   0.00488   0.00469   1.88590
   A25        1.96404  -0.00055  -0.00092  -0.00034  -0.00127   1.96276
   A26        1.96171  -0.00028  -0.00012  -0.00338  -0.00350   1.95821
   A27        1.84528   0.00009   0.00015  -0.00343  -0.00327   1.84201
   A28        1.97586   0.00093   0.00093   0.00379   0.00474   1.98060
   A29        1.84670  -0.00022   0.00106  -0.00429  -0.00325   1.84345
   A30        1.85784  -0.00000  -0.00109   0.00756   0.00647   1.86431
   A31        1.94410   0.00055  -0.00003   0.00755   0.00751   1.95161
   A32        1.92297  -0.00040   0.00054  -0.00520  -0.00465   1.91832
   A33        1.89293   0.00018  -0.00020   0.00248   0.00226   1.89519
   A34        1.89790  -0.00007  -0.00074  -0.00113  -0.00185   1.89605
   A35        1.90900  -0.00008  -0.00003   0.00157   0.00152   1.91052
   A36        1.89635  -0.00019   0.00047  -0.00555  -0.00510   1.89125
   A37        1.94594  -0.00062   0.00088  -0.00511  -0.00423   1.94171
   A38        1.94213  -0.00049   0.00054  -0.00404  -0.00350   1.93863
   A39        1.94692  -0.00050   0.00011  -0.00296  -0.00286   1.94407
   A40        1.87031   0.00055  -0.00045   0.00370   0.00325   1.87357
   A41        1.86570   0.00064  -0.00086   0.00562   0.00476   1.87046
   A42        1.88909   0.00053  -0.00034   0.00361   0.00326   1.89236
   A43        2.14452   0.00065   0.00004   0.00267   0.00271   2.14723
   A44        2.02988   0.00049   0.00059   0.00106   0.00159   2.03147
   A45        2.10876  -0.00115  -0.00063  -0.00376  -0.00434   2.10442
   A46        2.18470  -0.00017  -0.00050  -0.00016  -0.00067   2.18403
   A47        2.07434  -0.00026   0.00109  -0.00344  -0.00234   2.07200
   A48        2.02414   0.00044  -0.00059   0.00359   0.00300   2.02715
   A49        1.97465   0.00001   0.00055  -0.00130  -0.00076   1.97389
   A50        1.91223   0.00055  -0.00051   0.00611   0.00560   1.91783
   A51        1.91024  -0.00039   0.00120  -0.00541  -0.00421   1.90603
   A52        1.91182  -0.00029  -0.00094   0.00120   0.00026   1.91208
   A53        1.90501   0.00034  -0.00137   0.00459   0.00323   1.90824
   A54        1.84541  -0.00023   0.00110  -0.00550  -0.00439   1.84102
   A55        1.97115  -0.00144  -0.00081  -0.01204  -0.01287   1.95827
   A56        1.91082   0.00027   0.00198  -0.00242  -0.00040   1.91042
   A57        1.93485   0.00018  -0.00122   0.00131   0.00000   1.93485
   A58        1.91696   0.00062  -0.00117   0.00855   0.00736   1.92432
   A59        1.87276   0.00023   0.00257  -0.00558  -0.00308   1.86969
   A60        1.85338   0.00025  -0.00138   0.01174   0.01034   1.86372
   A61        1.95215  -0.00059  -0.00178  -0.00540  -0.00730   1.94485
   A62        1.93227   0.00134   0.00028  -0.00064  -0.00055   1.93172
   A63        1.89721   0.00029   0.00144   0.01071   0.01209   1.90931
   A64        1.87851  -0.00173   0.00078  -0.01859  -0.01784   1.86066
   A65        1.90736   0.00005  -0.00164  -0.00185  -0.00336   1.90400
   A66        1.89548   0.00067   0.00091   0.01623   0.01707   1.91254
   A67        1.95995  -0.00345  -0.00501  -0.01134  -0.01634   1.94360
   A68        1.94110  -0.00113   0.00009  -0.00902  -0.00899   1.93212
   A69        1.90644   0.00056   0.00026   0.00381   0.00409   1.91052
   A70        1.89619   0.00038   0.00160  -0.00176  -0.00022   1.89597
   A71        1.92026  -0.00011  -0.00031   0.00105   0.00074   1.92101
   A72        1.94475   0.00017  -0.00080  -0.00259  -0.00339   1.94136
   A73        1.85264   0.00020  -0.00086   0.00948   0.00862   1.86126
   A74        2.00554   0.00013  -0.00051  -0.00103  -0.00157   2.00398
   A75        1.90512   0.00021   0.00122   0.00035   0.00159   1.90671
   A76        1.89002  -0.00016   0.00124  -0.00333  -0.00210   1.88792
   A77        1.90050  -0.00025  -0.00077   0.00001  -0.00075   1.89975
   A78        1.89979  -0.00019  -0.00107  -0.00041  -0.00149   1.89831
   A79        1.85721   0.00027  -0.00011   0.00490   0.00482   1.86203
   A80        1.99181   0.00040  -0.00019  -0.00002  -0.00028   1.99153
   A81        1.90510   0.00011   0.00054   0.00459   0.00515   1.91025
   A82        1.92344  -0.00008   0.00044  -0.00381  -0.00336   1.92008
   A83        1.88872  -0.00035  -0.00036   0.00144   0.00109   1.88981
   A84        1.89866  -0.00031  -0.00059  -0.00473  -0.00531   1.89335
   A85        1.85054   0.00023   0.00017   0.00285   0.00303   1.85356
   A86        1.95524  -0.00054   0.00004  -0.00616  -0.00615   1.94909
   A87        1.89849   0.00015   0.00131  -0.00333  -0.00202   1.89646
   A88        1.94782  -0.00010  -0.00008   0.00026   0.00020   1.94801
   A89        1.91144   0.00004  -0.00079   0.00144   0.00063   1.91206
   A90        1.89065   0.00035  -0.00038   0.00331   0.00295   1.89360
   A91        1.85752   0.00013  -0.00015   0.00511   0.00496   1.86247
   A92        1.81393  -0.00035  -0.00014  -0.00286  -0.00300   1.81093
   A93        1.93035   0.00005   0.00098  -0.00079   0.00019   1.93053
   A94        1.96198   0.00018  -0.00023   0.00075   0.00052   1.96250
   A95        1.94191   0.00005  -0.00077  -0.00081  -0.00159   1.94032
   A96        1.95487  -0.00006  -0.00072   0.00160   0.00089   1.95577
   A97        1.86261   0.00013   0.00082   0.00197   0.00280   1.86541
   A98        1.86889   0.00058   0.00029   0.00109   0.00137   1.87026
   A99        1.93671  -0.00018  -0.00163   0.00069  -0.00094   1.93577
   A100       1.94213  -0.00051  -0.00089  -0.00161  -0.00250   1.93963
   A101       1.93011  -0.00039   0.00146  -0.00711  -0.00566   1.92445
   A102       1.92935   0.00017  -0.00037   0.00560   0.00524   1.93459
   A103       1.85769   0.00031   0.00112   0.00126   0.00240   1.86009
   A104       1.80405  -0.00028  -0.00055  -0.00099  -0.00155   1.80251
   A105       2.08958  -0.00045   0.00005  -0.00568  -0.00562   2.08396
   A106       1.85755  -0.00004   0.00121  -0.00525  -0.00403   1.85352
   A107       1.96058   0.00051  -0.00052   0.00356   0.00303   1.96361
   A108       1.88267   0.00007  -0.00084   0.00572   0.00486   1.88753
   A109       1.85934   0.00019   0.00057   0.00332   0.00387   1.86321
   A110       1.91306   0.00035   0.00041   0.00180   0.00221   1.91527
   A111       1.97239  -0.00024  -0.00077  -0.00047  -0.00124   1.97115
   A112       1.87493   0.00007   0.00081   0.00038   0.00119   1.87612
   A113       1.92742  -0.00014  -0.00025  -0.00075  -0.00100   1.92642
   A114       1.88332   0.00000   0.00026   0.00084   0.00110   1.88442
   A115       1.88978  -0.00004  -0.00041  -0.00175  -0.00217   1.88762
   A116       2.03376  -0.00021  -0.00002  -0.00183  -0.00185   2.03191
   A117       1.90723   0.00000   0.00068  -0.00220  -0.00152   1.90570
   A118       1.88301   0.00033   0.00095   0.00151   0.00246   1.88547
   A119       1.89542  -0.00005  -0.00117  -0.00016  -0.00133   1.89409
   A120       1.88907  -0.00022  -0.00034  -0.00110  -0.00143   1.88764
   A121       1.84637   0.00018  -0.00014   0.00448   0.00435   1.85072
   A122       2.02792  -0.00145  -0.00044  -0.00704  -0.00749   2.02043
   A123       1.88369   0.00031   0.00031   0.00015   0.00046   1.88415
   A124       1.91345   0.00054  -0.00002   0.00178   0.00174   1.91519
   A125       1.90460   0.00048   0.00010   0.00155   0.00165   1.90625
   A126       1.89101   0.00020   0.00020  -0.00140  -0.00120   1.88982
   A127       1.83339   0.00006  -0.00012   0.00634   0.00622   1.83960
   A128       2.03301  -0.00102  -0.00079  -0.00400  -0.00480   2.02821
   A129       1.89064   0.00000  -0.00047   0.00052   0.00005   1.89069
   A130       1.90724   0.00040  -0.00040   0.00089   0.00048   1.90772
   A131       1.88216   0.00064   0.00124   0.00255   0.00380   1.88596
   A132       1.89600   0.00005   0.00054  -0.00300  -0.00246   1.89354
   A133       1.84575   0.00001  -0.00006   0.00386   0.00382   1.84957
   A134       1.95954   0.00023   0.00011  -0.00025  -0.00013   1.95941
   A135       1.92345  -0.00004  -0.00051  -0.00025  -0.00076   1.92269
   A136       1.89041  -0.00011   0.00103  -0.00183  -0.00079   1.88961
   A137       1.93059  -0.00035  -0.00090  -0.00130  -0.00220   1.92839
   A138       1.88353   0.00002   0.00036   0.00005   0.00042   1.88395
   A139       1.87338   0.00027  -0.00004   0.00376   0.00372   1.87710
   A140       1.93451  -0.00016  -0.00013  -0.00005  -0.00018   1.93433
   A141       1.95947  -0.00075  -0.00089  -0.00274  -0.00363   1.95585
   A142       1.93223  -0.00015   0.00057  -0.00259  -0.00203   1.93020
   A143       1.87276   0.00063  -0.00010   0.00521   0.00512   1.87788
   A144       1.88011   0.00014   0.00021   0.00023   0.00044   1.88055
   A145       1.88160   0.00035   0.00037   0.00028   0.00063   1.88223
   A146       1.93376  -0.00016   0.00053  -0.00238  -0.00186   1.93190
   A147       1.94476  -0.00060  -0.00064  -0.00219  -0.00282   1.94194
   A148       1.94233  -0.00043  -0.00047  -0.00136  -0.00183   1.94050
   A149       1.88046   0.00033   0.00034   0.00075   0.00108   1.88154
   A150       1.88051   0.00027   0.00028   0.00075   0.00102   1.88153
   A151       1.87925   0.00065  -0.00001   0.00477   0.00477   1.88402
   A152       1.95438  -0.00013  -0.00063   0.00133   0.00069   1.95507
   A153       1.93748  -0.00028   0.00026  -0.00392  -0.00367   1.93381
   A154       1.94588  -0.00085   0.00046  -0.00488  -0.00442   1.94147
   A155       1.88469   0.00004   0.00069  -0.00265  -0.00196   1.88273
   A156       1.85822   0.00091  -0.00112   0.01069   0.00958   1.86780
   A157       1.87933   0.00040   0.00031  -0.00003   0.00026   1.87960
    D1       -3.07569  -0.00028   0.00029  -0.02241  -0.02213  -3.09781
    D2       -1.00134  -0.00003   0.00046  -0.02070  -0.02025  -1.02159
    D3        1.27161  -0.00000   0.00018  -0.01763  -0.01744   1.25417
    D4       -0.98815  -0.00017   0.00017  -0.02044  -0.02027  -1.00843
    D5        1.08620   0.00007   0.00034  -0.01873  -0.01840   1.06780
    D6       -2.92404   0.00010   0.00006  -0.01566  -0.01559  -2.93963
    D7        1.11958  -0.00026   0.00011  -0.02186  -0.02176   1.09782
    D8       -3.08925  -0.00002   0.00028  -0.02015  -0.01989  -3.10914
    D9       -0.81630   0.00001  -0.00001  -0.01708  -0.01707  -0.83338
   D10        1.06342  -0.00011  -0.00160   0.01196   0.01036   1.07378
   D11       -1.23405   0.00013   0.00040   0.00632   0.00670  -1.22735
   D12        3.08940   0.00015   0.00038   0.00928   0.00964   3.09905
   D13       -1.05135  -0.00036  -0.00193   0.00680   0.00487  -1.04648
   D14        2.93437  -0.00013   0.00007   0.00116   0.00122   2.93558
   D15        0.97464  -0.00011   0.00005   0.00411   0.00416   0.97879
   D16        3.10365  -0.00005  -0.00061   0.01082   0.01023   3.11387
   D17        0.80618   0.00019   0.00139   0.00518   0.00657   0.81275
   D18       -1.15355   0.00020   0.00138   0.00813   0.00951  -1.14404
   D19       -1.15362  -0.00001   0.00021   0.00149   0.00168  -1.15194
   D20        3.01404   0.00018   0.00028   0.00590   0.00618   3.02022
   D21        0.96990  -0.00002  -0.00031   0.00155   0.00125   0.97114
   D22        0.98344   0.00002   0.00127   0.00183   0.00309   0.98653
   D23       -1.13208   0.00021   0.00135   0.00624   0.00758  -1.12450
   D24        3.10695   0.00002   0.00076   0.00190   0.00266   3.10961
   D25        2.91919  -0.00032  -0.00037  -0.00404  -0.00443   2.91476
   D26        0.80367  -0.00013  -0.00030   0.00037   0.00007   0.80374
   D27       -1.24048  -0.00033  -0.00089  -0.00397  -0.00486  -1.24534
   D28        1.38806  -0.00015   0.00018  -0.00954  -0.00936   1.37871
   D29       -0.80809  -0.00029   0.00131  -0.00947  -0.00816  -0.81624
   D30       -2.91405  -0.00021  -0.00053  -0.00564  -0.00617  -2.92021
   D31       -0.68367   0.00006  -0.00100  -0.00586  -0.00686  -0.69053
   D32       -2.87982  -0.00007   0.00013  -0.00579  -0.00566  -2.88548
   D33        1.29741   0.00001  -0.00171  -0.00196  -0.00367   1.29374
   D34       -2.68102   0.00013   0.00030  -0.00210  -0.00178  -2.68280
   D35        1.40602  -0.00000   0.00144  -0.00203  -0.00059   1.40543
   D36       -0.69994   0.00008  -0.00040   0.00180   0.00140  -0.69854
   D37        0.99176   0.00009   0.00163  -0.00929  -0.00767   0.98409
   D38        3.11610   0.00001   0.00158  -0.01554  -0.01396   3.10215
   D39       -1.09681   0.00013   0.00128  -0.01013  -0.00884  -1.10565
   D40       -3.12283   0.00015  -0.00027  -0.00088  -0.00117  -3.12400
   D41       -0.99849   0.00008  -0.00032  -0.00712  -0.00746  -1.00595
   D42        1.07179   0.00019  -0.00062  -0.00171  -0.00234   1.06945
   D43       -1.03369   0.00013  -0.00124   0.00031  -0.00093  -1.03462
   D44        1.09065   0.00005  -0.00129  -0.00593  -0.00722   1.08343
   D45       -3.12226   0.00017  -0.00158  -0.00052  -0.00210  -3.12436
   D46       -0.60305  -0.00011  -0.00114  -0.00151  -0.00264  -0.60569
   D47        1.48260  -0.00023  -0.00164  -0.00449  -0.00613   1.47646
   D48       -2.72058   0.00008  -0.00006  -0.00204  -0.00210  -2.72269
   D49       -2.85982  -0.00020   0.00085  -0.01232  -0.01144  -2.87126
   D50       -0.77417  -0.00032   0.00035  -0.01530  -0.01493  -0.78911
   D51        1.30583  -0.00000   0.00193  -0.01285  -0.01090   1.29493
   D52        1.34330  -0.00031   0.00105  -0.01338  -0.01232   1.33098
   D53       -2.85424  -0.00043   0.00055  -0.01636  -0.01581  -2.87005
   D54       -0.77424  -0.00011   0.00213  -0.01391  -0.01178  -0.78602
   D55       -3.10109  -0.00039  -0.00071  -0.00149  -0.00219  -3.10328
   D56       -0.84563   0.00018  -0.00033   0.00054   0.00024  -0.84539
   D57        1.17430   0.00009  -0.00160   0.00582   0.00424   1.17854
   D58        1.04477   0.00011  -0.00031   0.00713   0.00682   1.05159
   D59       -2.98295   0.00068   0.00008   0.00916   0.00924  -2.97370
   D60       -0.96302   0.00059  -0.00120   0.01444   0.01325  -0.94977
   D61       -1.01500  -0.00024  -0.00042   0.00236   0.00193  -1.01306
   D62        1.24047   0.00033  -0.00004   0.00439   0.00436   1.24483
   D63       -3.02278   0.00024  -0.00131   0.00967   0.00837  -3.01442
   D64       -2.85910   0.00010  -0.00048   0.00647   0.00599  -2.85311
   D65        1.28541   0.00006   0.00072   0.00134   0.00206   1.28746
   D66       -0.73064   0.00025  -0.00099   0.00756   0.00657  -0.72407
   D67       -0.73438  -0.00019  -0.00087   0.00006  -0.00080  -0.73518
   D68       -2.87306  -0.00022   0.00034  -0.00507  -0.00473  -2.87779
   D69        1.39408  -0.00003  -0.00138   0.00115  -0.00022   1.39386
   D70        1.34103  -0.00003  -0.00045   0.00140   0.00096   1.34199
   D71       -0.79765  -0.00007   0.00076  -0.00373  -0.00298  -0.80062
   D72       -2.81369   0.00012  -0.00096   0.00249   0.00154  -2.81216
   D73        1.32071  -0.00006   0.00010  -0.00611  -0.00602   1.31469
   D74       -0.78709  -0.00006   0.00069  -0.00618  -0.00549  -0.79259
   D75       -2.86069   0.00029  -0.00008   0.00210   0.00204  -2.85865
   D76       -0.92742   0.00000   0.00027  -0.00442  -0.00416  -0.93158
   D77       -3.03522  -0.00000   0.00086  -0.00449  -0.00363  -3.03885
   D78        1.17437   0.00035   0.00009   0.00379   0.00390   1.17827
   D79       -2.95554  -0.00036   0.00043  -0.01291  -0.01247  -2.96801
   D80        1.21984  -0.00036   0.00102  -0.01297  -0.01194   1.20790
   D81       -0.85375  -0.00001   0.00024  -0.00469  -0.00441  -0.85817
   D82        0.84945   0.00017  -0.00065   0.01622   0.01557   0.86502
   D83        2.96489   0.00007  -0.00085   0.02143   0.02058   2.98547
   D84       -1.29269   0.00036  -0.00007   0.02537   0.02531  -1.26739
   D85        3.09877  -0.00003  -0.00123   0.01608   0.01484   3.11362
   D86       -1.06897  -0.00013  -0.00143   0.02130   0.01985  -1.04912
   D87        0.95663   0.00016  -0.00064   0.02523   0.02458   0.98121
   D88       -1.16289   0.00021  -0.00012   0.01759   0.01749  -1.14540
   D89        0.95255   0.00011  -0.00032   0.02281   0.02251   0.97506
   D90        2.97815   0.00040   0.00046   0.02675   0.02723   3.00538
   D91       -3.02927   0.00036  -0.00062   0.03132   0.03070  -2.99856
   D92       -0.94219   0.00032  -0.00022   0.02986   0.02965  -0.91254
   D93        1.16946   0.00030  -0.00021   0.02963   0.02943   1.19889
   D94       -0.90683   0.00016  -0.00046   0.02890   0.02844  -0.87839
   D95        1.18025   0.00012  -0.00006   0.02744   0.02739   1.20764
   D96       -2.99129   0.00011  -0.00004   0.02721   0.02717  -2.96412
   D97        1.16161  -0.00016  -0.00034   0.02245   0.02209   1.18370
   D98       -3.03449  -0.00020   0.00006   0.02099   0.02104  -3.01346
   D99       -0.92285  -0.00021   0.00008   0.02076   0.02082  -0.90203
   D100       0.25853   0.00016  -0.00047   0.00055   0.00009   0.25863
   D101      -2.89153   0.00003   0.00031  -0.00398  -0.00367  -2.89520
   D102      -1.87675  -0.00022  -0.00029  -0.00479  -0.00506  -1.88182
   D103       1.25637  -0.00035   0.00049  -0.00931  -0.00883   1.24754
   D104       2.33003   0.00003  -0.00009  -0.00284  -0.00292   2.32712
   D105      -0.82003  -0.00010   0.00068  -0.00737  -0.00669  -0.82671
   D106       2.94658  -0.00048   0.00005  -0.00414  -0.00411   2.94246
   D107      -1.19633  -0.00055  -0.00039  -0.00459  -0.00498  -1.20131
   D108       0.81874  -0.00021   0.00086  -0.00041   0.00044   0.81918
   D109      -1.21316   0.00024  -0.00013   0.00758   0.00744  -1.20571
   D110       0.92712   0.00018  -0.00057   0.00713   0.00657   0.93370
   D111       2.94219   0.00052   0.00068   0.01131   0.01199   2.95418
   D112       0.85626   0.00000  -0.00077   0.00388   0.00311   0.85936
   D113       2.99654  -0.00006  -0.00121   0.00343   0.00224   2.99878
   D114      -1.27158   0.00028   0.00004   0.00762   0.00766  -1.26392
   D115       0.02254   0.00007   0.00022   0.00497   0.00519   0.02773
   D116      -3.12125   0.00004  -0.00005   0.00232   0.00228  -3.11897
   D117      -3.11021   0.00020  -0.00059   0.00967   0.00908  -3.10113
   D118       0.02918   0.00018  -0.00085   0.00703   0.00617   0.03535
   D119       0.88925   0.00012  -0.00064   0.01557   0.01491   0.90416
   D120       3.03109   0.00012  -0.00128   0.01648   0.01521   3.04630
   D121      -1.21306   0.00069  -0.00252   0.03014   0.02762  -1.18545
   D122      -2.26063  -0.00000   0.00012   0.01117   0.01127  -2.24935
   D123      -0.11879  -0.00000  -0.00052   0.01209   0.01158  -0.10721
   D124       1.92025   0.00057  -0.00176   0.02574   0.02398   1.94423
   D125       0.22594  -0.00027   0.00033  -0.00558  -0.00525   0.22069
   D126       2.36485   0.00023  -0.00064   0.00228   0.00164   2.36649
   D127      -1.90545  -0.00002  -0.00058  -0.00108  -0.00167  -1.90711
   D128      -2.91351  -0.00025   0.00058  -0.00300  -0.00241  -2.91592
   D129      -0.77460   0.00026  -0.00039   0.00487   0.00449  -0.77011
   D130       1.23829   0.00001  -0.00032   0.00151   0.00118   1.23947
   D131      -3.02252   0.00071  -0.00015   0.00493   0.00477  -3.01774
   D132      -0.92758  -0.00097  -0.00016  -0.02268  -0.02286  -0.95043
   D133       1.15308   0.00083   0.00207   0.00349   0.00556   1.15864
   D134       1.12225   0.00091  -0.00128   0.01019   0.00892   1.13118
   D135      -3.06599  -0.00077  -0.00130  -0.01743  -0.01871  -3.08470
   D136      -0.98534   0.00103   0.00094   0.00875   0.00971  -0.97563
   D137      -0.88510   0.00017  -0.00042  -0.00502  -0.00542  -0.89052
   D138       1.20984  -0.00151  -0.00043  -0.03263  -0.03305   1.17680
   D139      -2.99269   0.00029   0.00180  -0.00645  -0.00462  -2.99732
   D140      -1.05501   0.00001  -0.00012  -0.01029  -0.01033  -1.06533
   D141       3.10203  -0.00013   0.00012   0.00630   0.00639   3.10842
   D142       1.04668   0.00002  -0.00048  -0.00156  -0.00210   1.04457
   D143       0.95939   0.00120   0.00115   0.02179   0.02297   0.98237
   D144       3.08223   0.00071   0.00099   0.01980   0.02080   3.10304
   D145      -1.18725   0.00146   0.00099   0.03216   0.03317  -1.15407
   D146       3.09785   0.00017  -0.00038   0.00263   0.00233   3.10018
   D147      -1.06250  -0.00032  -0.00053   0.00064   0.00016  -1.06234
   D148       0.95121   0.00043  -0.00053   0.01299   0.01253   0.96373
   D149      -1.12230  -0.00037  -0.00139  -0.00105  -0.00248  -1.12478
   D150       1.00053  -0.00086  -0.00155  -0.00303  -0.00464   0.99589
   D151       3.01424  -0.00011  -0.00155   0.00932   0.00772   3.02196
   D152      -0.96348   0.00014   0.00003  -0.01024  -0.01019  -0.97367
   D153      -3.10624  -0.00004  -0.00061  -0.00998  -0.01059  -3.11683
   D154       1.15906  -0.00012   0.00049  -0.01559  -0.01510   1.14395
   D155      -3.07824   0.00025  -0.00015  -0.00978  -0.00992  -3.08815
   D156       1.06219   0.00007  -0.00079  -0.00952  -0.01031   1.05187
   D157      -0.95570  -0.00001   0.00030  -0.01513  -0.01483  -0.97053
   D158       1.15502  -0.00004   0.00158  -0.02059  -0.01897   1.13606
   D159      -0.98774  -0.00021   0.00094  -0.02033  -0.01937  -1.00710
   D160      -3.00562  -0.00030   0.00203  -0.02593  -0.02388  -3.02950
   D161      -0.93878  -0.00013   0.00019  -0.01685  -0.01665  -0.95543
   D162       1.16926  -0.00026   0.00132  -0.02409  -0.02277   1.14649
   D163      -3.09477   0.00011   0.00052  -0.01541  -0.01488  -3.10966
   D164      -3.06327  -0.00028  -0.00011  -0.02377  -0.02387  -3.08714
   D165      -0.95523  -0.00041   0.00103  -0.03101  -0.02998  -0.98522
   D166       1.06392  -0.00004   0.00023  -0.02233  -0.02210   1.04182
   D167       1.21681  -0.00020   0.00018  -0.02543  -0.02524   1.19158
   D168      -2.95833  -0.00033   0.00131  -0.03267  -0.03136  -2.98969
   D169      -0.93918   0.00004   0.00051  -0.02398  -0.02347  -0.96265
   D170       0.16133   0.00002   0.00023  -0.00327  -0.00304   0.15828
   D171       2.26924  -0.00021   0.00123  -0.01086  -0.00963   2.25961
   D172      -1.94886  -0.00026   0.00102  -0.00988  -0.00885  -1.95771
   D173      -1.91643   0.00014  -0.00047  -0.00026  -0.00073  -1.91716
   D174       0.19149  -0.00009   0.00053  -0.00786  -0.00732   0.18417
   D175       2.25657  -0.00014   0.00033  -0.00687  -0.00654   2.25003
   D176       2.28360  -0.00001  -0.00051  -0.00330  -0.00382   2.27978
   D177      -1.89167  -0.00024   0.00048  -0.01089  -0.01040  -1.90207
   D178       0.17342  -0.00029   0.00028  -0.00991  -0.00963   0.16379
   D179       0.33181   0.00010   0.00071   0.00632   0.00703   0.33885
   D180       2.60829  -0.00033   0.00004   0.00074   0.00077   2.60906
   D181      -1.63099   0.00024  -0.00007   0.01042   0.01035  -1.62064
   D182      -1.78029   0.00019   0.00166   0.00896   0.01062  -1.76967
   D183       0.49618  -0.00024   0.00099   0.00338   0.00436   0.50054
   D184       2.54009   0.00033   0.00088   0.01306   0.01394   2.55403
   D185       2.45008  -0.00006  -0.00041   0.00834   0.00793   2.45801
   D186      -1.55663  -0.00049  -0.00108   0.00275   0.00167  -1.55496
   D187       0.48728   0.00008  -0.00120   0.01244   0.01125   0.49853
   D188       3.13402   0.00010  -0.00007   0.00629   0.00622   3.14024
   D189      -0.99127   0.00001  -0.00063   0.00633   0.00569  -0.98558
   D190       1.09207  -0.00013  -0.00107   0.00413   0.00306   1.09512
   D191       1.01369   0.00039   0.00114   0.00915   0.01029   1.02398
   D192      -3.11161   0.00030   0.00057   0.00918   0.00977  -3.10184
   D193      -1.02827   0.00016   0.00013   0.00699   0.00713  -1.02114
   D194      -1.04410  -0.00010   0.00209  -0.00183   0.00024  -1.04385
   D195       1.11380  -0.00019   0.00152  -0.00180  -0.00028   1.11351
   D196      -3.08605  -0.00033   0.00108  -0.00400  -0.00292  -3.08897
   D197      -3.06381  -0.00014  -0.00029  -0.00441  -0.00470  -3.06851
   D198      -0.90800  -0.00036  -0.00131  -0.00783  -0.00913  -0.91713
   D199       1.09160   0.00003  -0.00059  -0.00289  -0.00348   1.08813
   D200       1.03531   0.00001   0.00057  -0.00455  -0.00399   1.03132
   D201      -3.09207  -0.00021  -0.00045  -0.00797  -0.00842  -3.10049
   D202      -1.09247   0.00018   0.00027  -0.00303  -0.00276  -1.09523
   D203      -1.02713   0.00013   0.00106  -0.00252  -0.00146  -1.02859
   D204       1.12868  -0.00009   0.00004  -0.00594  -0.00589   1.12279
   D205       3.12828   0.00030   0.00076  -0.00100  -0.00024   3.12804
   D206       1.15392  -0.00040   0.00115  -0.02214  -0.02099   1.13293
   D207      -0.95400  -0.00016   0.00052  -0.01693  -0.01641  -0.97041
   D208      -3.04933   0.00009  -0.00038  -0.01096  -0.01134  -3.06067
   D209      -2.97930  -0.00022   0.00095  -0.02070  -0.01975  -2.99905
   D210       1.19596   0.00001   0.00032  -0.01549  -0.01517   1.18080
   D211      -0.89936   0.00027  -0.00057  -0.00952  -0.01010  -0.90947
   D212      -0.92083  -0.00032   0.00088  -0.02116  -0.02027  -0.94110
   D213      -3.02875  -0.00008   0.00025  -0.01595  -0.01569  -3.04444
   D214       1.15911   0.00017  -0.00064  -0.00998  -0.01063   1.14848
   D215       0.97697  -0.00001  -0.00144   0.04179   0.04034   1.01731
   D216       3.12165  -0.00015  -0.00138   0.03900   0.03763  -3.12391
   D217      -1.17368   0.00035  -0.00137   0.04747   0.04610  -1.12757
   D218      -1.18492   0.00018  -0.00138   0.04623   0.04484  -1.14007
   D219       0.95976   0.00004  -0.00132   0.04345   0.04213   1.00189
   D220       2.94762   0.00055  -0.00131   0.05191   0.05060   2.99822
   D221       3.10156   0.00011  -0.00047   0.04163   0.04116  -3.14046
   D222      -1.03695  -0.00004  -0.00041   0.03885   0.03844  -0.99851
   D223       0.95091   0.00047  -0.00039   0.04731   0.04692   0.99783
   D224       1.00203  -0.00004  -0.00119   0.03610   0.03491   1.03694
   D225       3.12621   0.00010  -0.00047   0.03708   0.03660  -3.12037
   D226      -1.15401   0.00032  -0.00100   0.04240   0.04140  -1.11261
   D227      -1.13167   0.00021  -0.00136   0.03973   0.03837  -1.09330
   D228       0.99251   0.00035  -0.00064   0.04071   0.04006   1.03258
   D229       2.99547   0.00057  -0.00117   0.04602   0.04486   3.04033
   D230      -3.11886  -0.00021  -0.00137   0.03220   0.03083  -3.08804
   D231      -0.99468  -0.00007  -0.00066   0.03318   0.03252  -0.96216
   D232       1.00828   0.00016  -0.00118   0.03849   0.03731   1.04560
   D233       1.03932   0.00019   0.00077   0.01888   0.01965   1.05897
   D234      -3.08330  -0.00014  -0.00069   0.01683   0.01614  -3.06716
   D235      -1.03870   0.00010  -0.00043   0.02016   0.01972  -1.01898
   D236      -1.08932   0.00038   0.00097   0.01895   0.01992  -1.06941
   D237       1.07124   0.00006  -0.00049   0.01690   0.01641   1.08765
   D238       3.11584   0.00029  -0.00023   0.02023   0.01999   3.13583
   D239      -3.08203   0.00001   0.00010   0.01464   0.01474  -3.06729
   D240      -0.92147  -0.00031  -0.00136   0.01259   0.01123  -0.91023
   D241       1.12313  -0.00007  -0.00110   0.01591   0.01482   1.13795
   D242       3.09674  -0.00007  -0.00074   0.00931   0.00858   3.10532
   D243      -1.09235   0.00012  -0.00155   0.01407   0.01252  -1.07983
   D244       1.01144  -0.00005  -0.00129   0.01075   0.00946   1.02090
   D245       0.94017   0.00008   0.00051   0.01078   0.01129   0.95145
   D246       3.03426   0.00027  -0.00030   0.01554   0.01523   3.04949
   D247      -1.14514   0.00010  -0.00005   0.01221   0.01217  -1.13296
   D248      -1.10439  -0.00006   0.00085   0.00694   0.00779  -1.09660
   D249       0.98971   0.00013   0.00004   0.01170   0.01173   1.00144
   D250       3.09349  -0.00004   0.00030   0.00837   0.00867   3.10217
   D251      -1.09547   0.00001   0.00066   0.00033   0.00099  -1.09448
   D252       0.99802  -0.00007   0.00102  -0.00178  -0.00075   0.99727
   D253       3.09578   0.00006   0.00027   0.00188   0.00215   3.09792
   D254       1.08178   0.00002  -0.00018  -0.00108  -0.00127   1.08051
   D255      -3.10791  -0.00006   0.00017  -0.00319  -0.00302  -3.11093
   D256      -1.01016   0.00007  -0.00058   0.00046  -0.00012  -1.01027
   D257       3.13258   0.00001  -0.00027   0.00048   0.00020   3.13278
   D258      -1.05711  -0.00008   0.00009  -0.00163  -0.00154  -1.05866
   D259       1.04064   0.00005  -0.00067   0.00202   0.00135   1.04200
         Item               Value     Threshold  Converged?
 Maximum Force            0.003451     0.000450     NO 
 RMS     Force            0.000461     0.000300     NO 
 Maximum Displacement     0.310000     0.001800     NO 
 RMS     Displacement     0.051952     0.001200     NO 
 Predicted change in Energy=-5.595861D-04
 Lowest energy point so far.  Saving SCF results.
 GradGradGradGradGradGradGradGradGradGradGradGradGradGradGradGradGradGrad

 Leave Link  103 at Mon Jul 28 18:45:53 2025, MaxMem=  1073741824 cpu:               1.3 elap:               0.2
 (Enter /app/gaussian/g16/l202.exe)
 Stoichiometry    C27H46O
 Framework group  C1[X(C27H46O)]
 Deg. of freedom   216
 Full point group                 C1      NOp   1
 RotChk:  IX=0 Diff= 1.26D-02
 Largest Abelian subgroup         C1      NOp   1
 Largest concise Abelian subgroup C1      NOp   1
                         Standard orientation:                         
 ---------------------------------------------------------------------
 Center     Atomic      Atomic             Coordinates (Angstroms)
 Number     Number       Type             X           Y           Z
 ---------------------------------------------------------------------
      1          6           0       -0.991718   -0.305737    1.451426
      2          6           0       -0.733951   -0.392309   -0.073793
      3          6           0        0.101899    0.814717   -0.606612
      4          6           0        1.512786    0.950973   -0.006791
      5          6           0        2.312392   -0.364536   -0.238514
      6          6           0        3.752131   -0.314622    0.401013
      7          6           0        3.703854   -0.477755    1.948819
      8          6           0        4.427482    1.029142    0.068561
      9          6           0        3.752218    2.091636   -0.405206
     10          6           0        2.265214    2.138063   -0.643587
     11          6           0        5.924334    1.113392    0.319204
     12          6           0        6.690317   -0.043235   -0.343497
     13          8           0        8.103298   -0.041630    0.044746
     14          6           0        6.120187   -1.386357    0.093766
     15          6           0        4.613549   -1.466130   -0.218390
     16          6           0        1.499616   -1.623654    0.165388
     17          6           0        0.067789   -1.668205   -0.423711
     18          6           0       -0.861291    2.015190   -0.512482
     19          6           0       -2.257237    1.396814   -0.832555
     20          6           0       -2.076074   -0.167154   -0.865338
     21          6           0       -3.361647   -0.925535   -0.421723
     22          6           0       -4.547427   -0.537661   -1.350963
     23          6           0       -5.929748   -1.128224   -0.985780
     24          6           0       -6.455622   -0.783581    0.425530
     25          6           0       -6.636092    0.722059    0.739280
     26          6           0       -7.648317    1.399055   -0.207310
     27          6           0       -7.062146    0.911555    2.210770
     28          6           0       -3.177679   -2.457570   -0.396449
     29          1           0       -1.541299   -1.188892    1.798412
     30          1           0       -0.062110   -0.254418    2.025967
     31          1           0       -1.587055    0.575746    1.714084
     32          1           0        0.251019    0.609869   -1.683192
     33          1           0        1.430981    1.139478    1.074424
     34          1           0        2.473601   -0.424638   -1.330254
     35          1           0        4.685973   -0.298341    2.397496
     36          1           0        3.004130    0.235270    2.398470
     37          1           0        3.397838   -1.490276    2.234512
     38          1           0        4.305129    3.003272   -0.637365
     39          1           0        1.860480    3.086185   -0.260658
     40          1           0        2.069366    2.151452   -1.730469
     41          1           0        6.303019    2.079145   -0.045486
     42          1           0        6.144223    1.072286    1.397213
     43          1           0        6.617415    0.049900   -1.439862
     44          1           0        8.548011    0.784435   -0.232365
     45          1           0        6.654484   -2.195173   -0.420294
     46          1           0        6.311283   -1.515827    1.167387
     47          1           0        4.230084   -2.432362    0.130812
     48          1           0        4.476735   -1.447794   -1.310476
     49          1           0        2.034668   -2.524537   -0.161767
     50          1           0        1.428334   -1.689839    1.257341
     51          1           0        0.122889   -1.760209   -1.519909
     52          1           0       -0.431415   -2.572177   -0.056241
     53          1           0       -0.841364    2.448830    0.496788
     54          1           0       -0.597556    2.818899   -1.209454
     55          1           0       -2.994737    1.678235   -0.069563
     56          1           0       -2.642137    1.764839   -1.790052
     57          1           0       -1.872892   -0.468030   -1.908077
     58          1           0       -3.606784   -0.592619    0.598683
     59          1           0       -4.634078    0.555109   -1.387777
     60          1           0       -4.296880   -0.858018   -2.375599
     61          1           0       -6.655005   -0.782791   -1.736663
     62          1           0       -5.904142   -2.222198   -1.086396
     63          1           0       -7.429743   -1.280418    0.563314
     64          1           0       -5.784021   -1.219319    1.180406
     65          1           0       -5.662922    1.221060    0.608388
     66          1           0       -7.785645    2.454989    0.058818
     67          1           0       -7.323118    1.360582   -1.253479
     68          1           0       -8.628693    0.906607   -0.141038
     69          1           0       -8.036392    0.438555    2.396866
     70          1           0       -6.333726    0.461057    2.897299
     71          1           0       -7.151987    1.975669    2.463703
     72          1           0       -2.447536   -2.770557    0.355497
     73          1           0       -2.834688   -2.825401   -1.372987
     74          1           0       -4.119043   -2.966575   -0.160752
 ---------------------------------------------------------------------
 Rotational constants (GHZ):           0.5330703           0.0601818           0.0579361
 Leave Link  202 at Mon Jul 28 18:45:53 2025, MaxMem=  1073741824 cpu:               0.1 elap:               0.0
 (Enter /app/gaussian/g16/l301.exe)
 Standard basis: 6-31+G (6D, 7F)
 Ernie: Thresh=  0.10000D-02 Tol=  0.10000D-05 Strict=F.
 There are   456 symmetry adapted cartesian basis functions of A   symmetry.
 There are   456 symmetry adapted basis functions of A   symmetry.
   456 basis functions,   912 primitive gaussians,   456 cartesian basis functions
   108 alpha electrons      108 beta electrons
       nuclear repulsion energy      2810.3319587119 Hartrees.
 IExCor=  402 DFT=T Ex+Corr=B3LYP ExCW=0 ScaHFX=  0.200000
 ScaDFX=  0.800000  0.720000  1.000000  0.810000 ScalE2=  1.000000  1.000000
 IRadAn=      5 IRanWt=     -1 IRanGd=            0 ICorTp=0 IEmpDi=  4
 NAtoms=   74 NActive=   74 NUniq=   74 SFac= 1.00D+00 NAtFMM=   60 NAOKFM=T Big=T
 Integral buffers will be    131072 words long.
 Raffenetti 2 integral format.
 Two-electron integral symmetry is turned on.
 Leave Link  301 at Mon Jul 28 18:45:53 2025, MaxMem=  1073741824 cpu:               0.4 elap:               0.1
 (Enter /app/gaussian/g16/l302.exe)
 NPDir=0 NMtPBC=     1 NCelOv=     1 NCel=       1 NClECP=     1 NCelD=      1
         NCelK=      1 NCelE2=     1 NClLst=     1 CellRange=     0.0.
 One-electron integrals computed using PRISM.
 One-electron integral symmetry used in STVInt
 NBasis=   456 RedAO= T EigKep=  1.02D-06  NBF=   456
 NBsUse=   455 1.00D-06 EigRej=  6.00D-07 NBFU=   455
 Precomputing XC quadrature grid using
 IXCGrd= 4 IRadAn=           5 IRanWt=          -1 IRanGd=           0 AccXCQ= 0.00D+00.
 Generated NRdTot=       0 NPtTot=           0 NUsed=           0 NTot=          32
 NSgBfM=   441   440   440   441   441 MxSgAt=    74 MxSgA2=    74.
 Leave Link  302 at Mon Jul 28 18:45:55 2025, MaxMem=  1073741824 cpu:              11.7 elap:               1.5
 (Enter /app/gaussian/g16/l303.exe)
 DipDrv:  MaxL=1.
 Leave Link  303 at Mon Jul 28 18:45:55 2025, MaxMem=  1073741824 cpu:               0.5 elap:               0.1
 (Enter /app/gaussian/g16/l401.exe)
 Initial guess from the checkpoint file:  "/work/scr/Gau-255599.chk"
 B after Tr=    -0.000000    0.000000    0.000000
         Rot=    0.999992    0.003961    0.000241   -0.000833 Ang=   0.46 deg.
 Guess basis will be translated and rotated to current coordinates.
 JPrj=2 DoOrth=T DoCkMO=T.
 Generating alternative initial guess.
 ExpMin= 4.38D-02 ExpMax= 5.48D+03 ExpMxC= 8.25D+02 IAcc=3 IRadAn=         5 AccDes= 0.00D+00
 Harris functional with IExCor=  402 and IRadAn=       5 diagonalized for initial guess.
 HarFok:  IExCor=  402 AccDes= 0.00D+00 IRadAn=         5 IDoV= 1 UseB2=F ITyADJ=14
 ICtDFT=  3500011 ScaDFX=  1.000000  1.000000  1.000000  1.000000
 FoFCou: FMM=F IPFlag=           0 FMFlag=      100000 FMFlg1=        2001
         NFxFlg=           0 DoJE=T BraDBF=F KetDBF=T FulRan=T
         wScrn=  0.000000 ICntrl=       500 IOpCl=  0 I1Cent=   200000004 NGrid=           0
         NMat0=    1 NMatS0=      1 NMatT0=    0 NMatD0=    1 NMtDS0=    0 NMtDT0=    0
 Petite list used in FoFCou.
 Harris En= -1131.63561532052    
 Leave Link  401 at Mon Jul 28 18:46:05 2025, MaxMem=  1073741824 cpu:              77.2 elap:               9.7
 (Enter /app/gaussian/g16/l502.exe)
 Integral symmetry usage will be decided dynamically.
 Closed shell SCF:
 Using DIIS extrapolation, IDIIS=  1040.
 NGot=  1073741824 LenX=  1073314746 LenY=  1073106354
 Requested convergence on RMS density matrix=1.00D-08 within 128 cycles.
 Requested convergence on MAX density matrix=1.00D-06.
 Requested convergence on             energy=1.00D-06.
 No special actions if energy rises.
 Fock matrices will be formed incrementally for  20 cycles.

 Cycle   1  Pass 1  IDiag  1:
 FoFJK:  IHMeth= 1 ICntrl=       0 DoSepK=F KAlg= 0 I1Cent=           0 FoldK=F
 IRaf= 990000000 NMat=       1 IRICut=       1 DoRegI=T DoRafI=F ISym2E= 0 IDoP0=0 IntGTp=1.
 FoFCou: FMM=T IPFlag=           0 FMFlag=      100000 FMFlg1=        2001
         NFxFlg=           0 DoJE=F BraDBF=F KetDBF=F FulRan=T
         wScrn=  0.000000 ICntrl=         0 IOpCl=  0 I1Cent=           0 NGrid=           0
         NMat0=    1 NMatS0=      1 NMatT0=    0 NMatD0=    1 NMtDS0=    0 NMtDT0=    0
 Symmetry not used in FoFCou.
 FMM levels:  10  Number of levels for PrismC:   9
 E= -1131.54481326832    
 DIIS: error= 9.09D-03 at cycle   1 NSaved=   1.
 NSaved= 1 IEnMin= 1 EnMin= -1131.54481326832     IErMin= 1 ErrMin= 9.09D-03
 ErrMax= 9.09D-03  0.00D+00 EMaxC= 1.00D-01 BMatC= 1.55D-02 BMatP= 1.55D-02
 IDIUse=3 WtCom= 9.09D-01 WtEn= 9.09D-02
 Coeff-Com:  0.100D+01
 Coeff-En:   0.100D+01
 Coeff:      0.100D+01
 Gap=     0.520 Goal=   None    Shift=    0.000
 GapD=    0.520 DampG=2.000 DampE=1.000 DampFc=2.0000 IDamp=-1.
 RMSDP=4.71D-03 MaxDP=3.63D-01              OVMax= 1.89D-02

 Cycle   2  Pass 1  IDiag  1:
 RMSU=  4.70D-03    CP:  1.00D+00
 E= -1131.55705504257     Delta-E=       -0.012241774250 Rises=F Damp=F
 DIIS: error= 2.33D-04 at cycle   2 NSaved=   2.
 NSaved= 2 IEnMin= 2 EnMin= -1131.55705504257     IErMin= 2 ErrMin= 2.33D-04
 ErrMax= 2.33D-04  0.00D+00 EMaxC= 1.00D-01 BMatC= 7.56D-05 BMatP= 1.55D-02
 IDIUse=3 WtCom= 9.98D-01 WtEn= 2.33D-03
 Coeff-Com: -0.119D-01 0.101D+01
 Coeff-En:   0.000D+00 0.100D+01
 Coeff:     -0.119D-01 0.101D+01
 Gap=     0.231 Goal=   None    Shift=    0.000
 RMSDP=1.43D-03 MaxDP=1.52D-01 DE=-1.22D-02 OVMax= 4.24D-03

 Cycle   3  Pass 1  IDiag  1:
 RMSU=  1.10D-03    CP:  1.01D+00  9.84D-01
 E= -1131.55706486604     Delta-E=       -0.000009823472 Rises=F Damp=F
 DIIS: error= 3.47D-04 at cycle   3 NSaved=   3.
 NSaved= 3 IEnMin= 3 EnMin= -1131.55706486604     IErMin= 2 ErrMin= 2.33D-04
 ErrMax= 3.47D-04  0.00D+00 EMaxC= 1.00D-01 BMatC= 1.05D-04 BMatP= 7.56D-05
 IDIUse=3 WtCom= 3.49D-01 WtEn= 6.51D-01
 Coeff-Com: -0.106D-01 0.558D+00 0.452D+00
 Coeff-En:   0.000D+00 0.473D+00 0.527D+00
 Coeff:     -0.369D-02 0.503D+00 0.501D+00
 Gap=     0.231 Goal=   None    Shift=    0.000
 RMSDP=7.04D-04 MaxDP=6.07D-02 DE=-9.82D-06 OVMax= 4.30D-03

 Cycle   4  Pass 1  IDiag  1:
 RMSU=  2.50D-04    CP:  1.01D+00  1.01D+00  5.07D-01
 E= -1131.55716652465     Delta-E=       -0.000101658602 Rises=F Damp=F
 DIIS: error= 2.06D-04 at cycle   4 NSaved=   4.
 NSaved= 4 IEnMin= 4 EnMin= -1131.55716652465     IErMin= 4 ErrMin= 2.06D-04
 ErrMax= 2.06D-04  0.00D+00 EMaxC= 1.00D-01 BMatC= 1.19D-05 BMatP= 7.56D-05
 IDIUse=3 WtCom= 9.98D-01 WtEn= 2.06D-03
 Coeff-Com: -0.386D-02 0.165D+00 0.278D+00 0.560D+00
 Coeff-En:   0.000D+00 0.000D+00 0.554D-01 0.945D+00
 Coeff:     -0.385D-02 0.165D+00 0.278D+00 0.561D+00
 Gap=     0.231 Goal=   None    Shift=    0.000
 RMSDP=1.40D-04 MaxDP=9.78D-03 DE=-1.02D-04 OVMax= 2.16D-03

 Cycle   5  Pass 1  IDiag  1:
 RMSU=  8.16D-05    CP:  1.01D+00  1.01D+00  5.45D-01  6.01D-01
 E= -1131.55717695683     Delta-E=       -0.000010432183 Rises=F Damp=F
 DIIS: error= 8.78D-05 at cycle   5 NSaved=   5.
 NSaved= 5 IEnMin= 5 EnMin= -1131.55717695683     IErMin= 5 ErrMin= 8.78D-05
 ErrMax= 8.78D-05  0.00D+00 EMaxC= 1.00D-01 BMatC= 2.03D-06 BMatP= 1.19D-05
 IDIUse=1 WtCom= 1.00D+00 WtEn= 0.00D+00
 Coeff-Com: -0.289D-03-0.121D-01 0.867D-01 0.374D+00 0.551D+00
 Coeff:     -0.289D-03-0.121D-01 0.867D-01 0.374D+00 0.551D+00
 Gap=     0.231 Goal=   None    Shift=    0.000
 RMSDP=4.89D-05 MaxDP=4.58D-03 DE=-1.04D-05 OVMax= 6.84D-04

 Cycle   6  Pass 1  IDiag  1:
 RMSU=  3.34D-05    CP:  1.01D+00  1.01D+00  5.54D-01  6.39D-01  7.31D-01
 E= -1131.55717903369     Delta-E=       -0.000002076857 Rises=F Damp=F
 DIIS: error= 7.06D-06 at cycle   6 NSaved=   6.
 NSaved= 6 IEnMin= 6 EnMin= -1131.55717903369     IErMin= 6 ErrMin= 7.06D-06
 ErrMax= 7.06D-06  0.00D+00 EMaxC= 1.00D-01 BMatC= 4.11D-08 BMatP= 2.03D-06
 IDIUse=1 WtCom= 1.00D+00 WtEn= 0.00D+00
 Coeff-Com:  0.125D-05-0.118D-01 0.305D-01 0.154D+00 0.257D+00 0.570D+00
 Coeff:      0.125D-05-0.118D-01 0.305D-01 0.154D+00 0.257D+00 0.570D+00
 Gap=     0.231 Goal=   None    Shift=    0.000
 RMSDP=1.87D-05 MaxDP=2.39D-03 DE=-2.08D-06 OVMax= 6.52D-05

 Cycle   7  Pass 1  IDiag  1:
 RMSU=  8.79D-06    CP:  1.01D+00  1.01D+00  5.59D-01  6.67D-01  7.03D-01
                    CP:  6.80D-01
 E= -1131.55717907694     Delta-E=       -0.000000043251 Rises=F Damp=F
 DIIS: error= 2.32D-06 at cycle   7 NSaved=   7.
 NSaved= 7 IEnMin= 7 EnMin= -1131.55717907694     IErMin= 7 ErrMin= 2.32D-06
 ErrMax= 2.32D-06  0.00D+00 EMaxC= 1.00D-01 BMatC= 4.28D-09 BMatP= 4.11D-08
 IDIUse=1 WtCom= 1.00D+00 WtEn= 0.00D+00
 Coeff-Com:  0.268D-04-0.520D-02 0.836D-02 0.478D-01 0.855D-01 0.297D+00
 Coeff-Com:  0.567D+00
 Coeff:      0.268D-04-0.520D-02 0.836D-02 0.478D-01 0.855D-01 0.297D+00
 Coeff:      0.567D+00
 Gap=     0.231 Goal=   None    Shift=    0.000
 RMSDP=4.80D-06 MaxDP=4.28D-04 DE=-4.33D-08 OVMax= 1.37D-05

 Cycle   8  Pass 1  IDiag  1:
 RMSU=  2.64D-06    CP:  1.01D+00  1.01D+00  5.61D-01  6.70D-01  6.98D-01
                    CP:  6.80D-01  6.83D-01
 E= -1131.55717908107     Delta-E=       -0.000000004133 Rises=F Damp=F
 DIIS: error= 6.02D-07 at cycle   8 NSaved=   8.
 NSaved= 8 IEnMin= 8 EnMin= -1131.55717908107     IErMin= 8 ErrMin= 6.02D-07
 ErrMax= 6.02D-07  0.00D+00 EMaxC= 1.00D-01 BMatC= 2.29D-10 BMatP= 4.28D-09
 IDIUse=1 WtCom= 1.00D+00 WtEn= 0.00D+00
 Coeff-Com:  0.119D-04-0.171D-02 0.211D-02 0.131D-01 0.244D-01 0.106D+00
 Coeff-Com:  0.273D+00 0.583D+00
 Coeff:      0.119D-04-0.171D-02 0.211D-02 0.131D-01 0.244D-01 0.106D+00
 Coeff:      0.273D+00 0.583D+00
 Gap=     0.231 Goal=   None    Shift=    0.000
 RMSDP=1.13D-06 MaxDP=1.01D-04 DE=-4.13D-09 OVMax= 3.35D-06

 Cycle   9  Pass 1  IDiag  1:
 RMSU=  7.28D-07    CP:  1.01D+00  1.01D+00  5.61D-01  6.70D-01  7.02D-01
                    CP:  6.87D-01  6.67D-01  8.00D-01
 E= -1131.55717908117     Delta-E=       -0.000000000102 Rises=F Damp=F
 DIIS: error= 2.06D-07 at cycle   9 NSaved=   9.
 NSaved= 9 IEnMin= 9 EnMin= -1131.55717908117     IErMin= 9 ErrMin= 2.06D-07
 ErrMax= 2.06D-07  0.00D+00 EMaxC= 1.00D-01 BMatC= 2.46D-11 BMatP= 2.29D-10
 IDIUse=1 WtCom= 1.00D+00 WtEn= 0.00D+00
 Coeff-Com:  0.336D-05-0.349D-03 0.238D-03 0.190D-02 0.379D-02 0.239D-01
 Coeff-Com:  0.819D-01 0.296D+00 0.593D+00
 Coeff:      0.336D-05-0.349D-03 0.238D-03 0.190D-02 0.379D-02 0.239D-01
 Coeff:      0.819D-01 0.296D+00 0.593D+00
 Gap=     0.231 Goal=   None    Shift=    0.000
 RMSDP=3.45D-07 MaxDP=3.07D-05 DE=-1.02D-10 OVMax= 1.20D-06

 Cycle  10  Pass 1  IDiag  1:
 RMSU=  2.11D-07    CP:  1.01D+00  1.01D+00  5.61D-01  6.70D-01  7.03D-01
                    CP:  6.89D-01  6.79D-01  7.84D-01  8.24D-01
 E= -1131.55717908136     Delta-E=       -0.000000000194 Rises=F Damp=F
 DIIS: error= 5.76D-08 at cycle  10 NSaved=  10.
 NSaved=10 IEnMin=10 EnMin= -1131.55717908136     IErMin=10 ErrMin= 5.76D-08
 ErrMax= 5.76D-08  0.00D+00 EMaxC= 1.00D-01 BMatC= 2.54D-12 BMatP= 2.46D-11
 IDIUse=1 WtCom= 1.00D+00 WtEn= 0.00D+00
 Coeff-Com:  0.154D-06 0.441D-04-0.157D-03-0.743D-03-0.127D-02-0.132D-02
 Coeff-Com:  0.726D-02 0.780D-01 0.296D+00 0.622D+00
 Coeff:      0.154D-06 0.441D-04-0.157D-03-0.743D-03-0.127D-02-0.132D-02
 Coeff:      0.726D-02 0.780D-01 0.296D+00 0.622D+00
 Gap=     0.231 Goal=   None    Shift=    0.000
 RMSDP=1.22D-07 MaxDP=7.70D-06 DE=-1.94D-10 OVMax= 2.64D-07

 Cycle  11  Pass 1  IDiag  1:
 RMSU=  7.85D-08    CP:  1.01D+00  1.01D+00  5.61D-01  6.70D-01  7.03D-01
                    CP:  6.90D-01  6.81D-01  8.00D-01  8.15D-01  8.13D-01
 E= -1131.55717908117     Delta-E=        0.000000000198 Rises=F Damp=F
 DIIS: error= 1.01D-08 at cycle  11 NSaved=  11.
 NSaved=11 IEnMin=10 EnMin= -1131.55717908136     IErMin=11 ErrMin= 1.01D-08
 ErrMax= 1.01D-08  0.00D+00 EMaxC= 1.00D-01 BMatC= 1.43D-13 BMatP= 2.54D-12
 IDIUse=1 WtCom= 1.00D+00 WtEn= 0.00D+00
 Coeff-Com: -0.110D-06 0.401D-04-0.860D-04-0.446D-03-0.795D-03-0.199D-02
 Coeff-Com: -0.159D-02 0.184D-01 0.100D+00 0.287D+00 0.600D+00
 Coeff:     -0.110D-06 0.401D-04-0.860D-04-0.446D-03-0.795D-03-0.199D-02
 Coeff:     -0.159D-02 0.184D-01 0.100D+00 0.287D+00 0.600D+00
 Gap=     0.231 Goal=   None    Shift=    0.000
 RMSDP=3.33D-08 MaxDP=1.89D-06 DE= 1.98D-10 OVMax= 5.79D-08

 Cycle  12  Pass 1  IDiag  1:
 RMSU=  1.66D-08    CP:  1.01D+00  1.01D+00  5.61D-01  6.70D-01  7.03D-01
                    CP:  6.90D-01  6.82D-01  8.03D-01  8.23D-01  7.82D-01
                    CP:  7.66D-01
 E= -1131.55717908116     Delta-E=        0.000000000007 Rises=F Damp=F
 DIIS: error= 3.46D-09 at cycle  12 NSaved=  12.
 NSaved=12 IEnMin=10 EnMin= -1131.55717908136     IErMin=12 ErrMin= 3.46D-09
 ErrMax= 3.46D-09  0.00D+00 EMaxC= 1.00D-01 BMatC= 9.97D-15 BMatP= 1.43D-13
 IDIUse=1 WtCom= 1.00D+00 WtEn= 0.00D+00
 Coeff-Com: -0.636D-07 0.146D-04-0.255D-04-0.139D-03-0.253D-03-0.791D-03
 Coeff-Com: -0.136D-02 0.181D-02 0.203D-01 0.765D-01 0.262D+00 0.642D+00
 Coeff:     -0.636D-07 0.146D-04-0.255D-04-0.139D-03-0.253D-03-0.791D-03
 Coeff:     -0.136D-02 0.181D-02 0.203D-01 0.765D-01 0.262D+00 0.642D+00
 Gap=     0.231 Goal=   None    Shift=    0.000
 RMSDP=1.10D-08 MaxDP=1.25D-06 DE= 7.28D-12 OVMax= 1.81D-08

 Cycle  13  Pass 1  IDiag  1:
 RMSU=  6.48D-09    CP:  1.01D+00  1.01D+00  5.61D-01  6.70D-01  7.03D-01
                    CP:  6.90D-01  6.81D-01  8.04D-01  8.24D-01  7.83D-01
                    CP:  7.24D-01  7.46D-01
 E= -1131.55717908106     Delta-E=        0.000000000099 Rises=F Damp=F
 DIIS: error= 7.54D-10 at cycle  13 NSaved=  13.
 NSaved=13 IEnMin=10 EnMin= -1131.55717908136     IErMin=13 ErrMin= 7.54D-10
 ErrMax= 7.54D-10  0.00D+00 EMaxC= 1.00D-01 BMatC= 7.10D-16 BMatP= 9.97D-15
 IDIUse=1 WtCom= 1.00D+00 WtEn= 0.00D+00
 Coeff-Com: -0.135D-07 0.179D-05-0.167D-05-0.108D-04-0.221D-04-0.117D-03
 Coeff-Com: -0.384D-03-0.107D-02-0.165D-02 0.221D-02 0.427D-01 0.254D+00
 Coeff-Com:  0.704D+00
 Coeff:     -0.135D-07 0.179D-05-0.167D-05-0.108D-04-0.221D-04-0.117D-03
 Coeff:     -0.384D-03-0.107D-02-0.165D-02 0.221D-02 0.427D-01 0.254D+00
 Coeff:      0.704D+00
 Gap=     0.231 Goal=   None    Shift=    0.000
 RMSDP=3.76D-09 MaxDP=3.54D-07 DE= 9.87D-11 OVMax= 4.79D-09

 SCF Done:  E(RB3LYP) =  -1131.55717908     A.U. after   13 cycles
            NFock= 13  Conv=0.38D-08     -V/T= 2.0059
 KE= 1.124905357456D+03 PE=-8.242422210251D+03 EE= 3.175627715003D+03
 Leave Link  502 at Mon Jul 28 18:50:20 2025, MaxMem=  1073741824 cpu:            2036.9 elap:             255.4
 (Enter /app/gaussian/g16/l701.exe)
 ... and contract with generalized density number  0.
 Compute integral first derivatives.
 Leave Link  701 at Mon Jul 28 18:50:20 2025, MaxMem=  1073741824 cpu:               1.8 elap:               0.3
 (Enter /app/gaussian/g16/l702.exe)
 L702 exits ... SP integral derivatives will be done elsewhere.
 Leave Link  702 at Mon Jul 28 18:50:20 2025, MaxMem=  1073741824 cpu:               0.2 elap:               0.0
 (Enter /app/gaussian/g16/l703.exe)
 Integral derivatives from FoFJK, PRISM(SPDF).
 Compute integral first derivatives, UseDBF=F ICtDFT=           0.
 Calling FoFJK, ICntrl=      2127 FMM=T ISym2X=0 I1Cent= 0 IOpClX= 0 NMat=1 NMatS=1 NMatT=0.
 FoFJK:  IHMeth= 1 ICntrl=    2127 DoSepK=F KAlg= 0 I1Cent=           0 FoldK=F
 IRaf=         0 NMat=       1 IRICut=       1 DoRegI=T DoRafI=F ISym2E= 0 IDoP0=0 IntGTp=1.
 FoFCou: FMM=T IPFlag=           0 FMFlag=      100000 FMFlg1=        2001
         NFxFlg=           0 DoJE=F BraDBF=F KetDBF=F FulRan=T
         wScrn=  0.000000 ICntrl=      2127 IOpCl=  0 I1Cent=           0 NGrid=           0
         NMat0=    1 NMatS0=      1 NMatT0=    0 NMatD0=    1 NMtDS0=    0 NMtDT0=    0
 Symmetry not used in FoFCou.
 FMM levels:  10  Number of levels for PrismC:   9
 Leave Link  703 at Mon Jul 28 18:51:11 2025, MaxMem=  1073741824 cpu:             405.9 elap:              50.9
 (Enter /app/gaussian/g16/l716.exe)
 Dipole        =-5.74423614D-01 4.50799150D-01-3.16186934D-01
 ***** Axes restored to original set *****
 -------------------------------------------------------------------
 Center     Atomic                   Forces (Hartrees/Bohr)
 Number     Number              X              Y              Z
 -------------------------------------------------------------------
      1        6           0.000156589   -0.000128127    0.000458224
      2        6           0.000062071   -0.000193066    0.000025324
      3        6          -0.000289868   -0.000354533    0.000392982
      4        6           0.000674114    0.000114682    0.000084954
      5        6          -0.000494068    0.000386886    0.000015975
      6        6           0.000520555   -0.000224712    0.000003098
      7        6           0.000057601    0.000021564    0.000488114
      8        6           0.000229671    0.000149870    0.000449502
      9        6           0.000760997   -0.000205693   -0.000447154
     10        6          -0.000730076   -0.000071759   -0.000090519
     11        6          -0.000943922   -0.000658285   -0.000173529
     12        6           0.001860432    0.000087861   -0.000595236
     13        8          -0.002012515   -0.000187421    0.000187441
     14        6           0.000257943    0.000415359    0.000131746
     15        6           0.000023489    0.000825076    0.000140339
     16        6          -0.000226439    0.000094439   -0.000486770
     17        6          -0.000386275    0.000007935    0.000159944
     18        6           0.000243275    0.000465566   -0.000052046
     19        6          -0.000461784    0.000442940   -0.000174714
     20        6           0.000639205   -0.000386678   -0.000006879
     21        6          -0.000583938   -0.000059762   -0.000081031
     22        6           0.000213616    0.000232135   -0.000141257
     23        6           0.000164138    0.000189601   -0.000179508
     24        6           0.000063106    0.000290927    0.000051900
     25        6           0.000123865   -0.000310258    0.000218251
     26        6          -0.000014933   -0.000163678   -0.000209012
     27        6          -0.000163617   -0.000035412   -0.000150786
     28        6           0.000176816    0.000137913    0.000666674
     29        1          -0.000051826   -0.000102189   -0.000029930
     30        1           0.000035759    0.000008097   -0.000171499
     31        1          -0.000077152    0.000183233   -0.000092516
     32        1           0.000119683   -0.000114170   -0.000198635
     33        1           0.000036501   -0.000000928    0.000016784
     34        1          -0.000023659    0.000051043    0.000095129
     35        1           0.000276149    0.000068298   -0.000075893
     36        1          -0.000011279    0.000138938   -0.000103409
     37        1           0.000241326    0.000195844   -0.000163965
     38        1           0.000003577    0.000007119    0.000078721
     39        1          -0.000105409    0.000045628    0.000003861
     40        1           0.000130090    0.000011870    0.000080506
     41        1           0.000102230    0.000309443    0.000298038
     42        1           0.000053123    0.000307264   -0.000381525
     43        1          -0.000444248   -0.000205350    0.000584241
     44        1           0.000065300   -0.000129460   -0.000214490
     45        1           0.000167192   -0.000322836   -0.000002626
     46        1           0.000109351   -0.000230218   -0.000416637
     47        1           0.000266590    0.000037145   -0.000043115
     48        1           0.000025777   -0.000184314    0.000075954
     49        1          -0.000070692   -0.000173036    0.000137554
     50        1          -0.000357604   -0.000274203    0.000136508
     51        1           0.000019562   -0.000107721    0.000092550
     52        1          -0.000370727   -0.000180217   -0.000259869
     53        1           0.000024593    0.000118278   -0.000062221
     54        1          -0.000028883    0.000195174    0.000081769
     55        1          -0.000048930    0.000059226    0.000183214
     56        1          -0.000002568    0.000001805    0.000030899
     57        1          -0.000012768   -0.000119000   -0.000017766
     58        1           0.000125859   -0.000027709   -0.000062864
     59        1          -0.000122801    0.000022944    0.000089601
     60        1          -0.000010375   -0.000208001    0.000065298
     61        1          -0.000266505    0.000078742    0.000105496
     62        1           0.000177943   -0.000286556   -0.000146894
     63        1          -0.000189376   -0.000029965    0.000050645
     64        1           0.000111817   -0.000098578   -0.000139929
     65        1           0.000067376   -0.000019323    0.000064337
     66        1          -0.000074439    0.000147565    0.000052280
     67        1           0.000030330   -0.000040215    0.000167483
     68        1          -0.000038631   -0.000047423    0.000063635
     69        1          -0.000045060    0.000002474   -0.000032858
     70        1           0.000108469    0.000010863   -0.000099850
     71        1           0.000034078    0.000139082    0.000003499
     72        1           0.000413875   -0.000014788   -0.000355706
     73        1           0.000003110    0.000072483   -0.000099507
     74        1          -0.000316775   -0.000179726   -0.000072325
 -------------------------------------------------------------------
 Cartesian Forces:  Max     0.002012515 RMS     0.000306259
 Leave Link  716 at Mon Jul 28 18:51:11 2025, MaxMem=  1073741824 cpu:               0.2 elap:               0.0
 (Enter /app/gaussian/g16/l103.exe)

 GradGradGradGradGradGradGradGradGradGradGradGradGradGradGradGradGradGrad
 Berny optimization.
 Using GEDIIS/GDIIS optimizer.
 FormGI is forming the generalized inverse of G from B-inverse, IUseBI=4.
 Internal  Forces:  Max     0.001936032 RMS     0.000212876
 Search for a local minimum.
 Step number   3 out of a maximum of  444
 All quantities printed in internal units (Hartrees-Bohrs-Radians)
 RMS Force = .21288D-03 SwitMx=.10000D-02 MixMth= 2
 Mixed Optimization -- En-DIIS/RFO-DIIS
 Swapping is turned off.
 Update second derivatives using D2CorX and points    1    2    3
 DE= -4.86D-04 DEPred=-5.60D-04 R= 8.69D-01
 TightC=F SS=  1.41D+00  RLast= 2.70D-01 DXNew= 8.4853D-01 8.1079D-01
 Trust test= 8.69D-01 RLast= 2.70D-01 DXMaxT set to 8.11D-01
 ITU=  1  1  0
     Eigenvalues ---    0.00228   0.00230   0.00230   0.00232   0.00239
     Eigenvalues ---    0.00306   0.00329   0.00340   0.00349   0.00354
     Eigenvalues ---    0.00381   0.00425   0.00470   0.00500   0.00561
     Eigenvalues ---    0.00586   0.00662   0.00982   0.01139   0.01346
     Eigenvalues ---    0.01407   0.01622   0.01649   0.02197   0.02318
     Eigenvalues ---    0.02390   0.02674   0.03044   0.03109   0.03130
     Eigenvalues ---    0.03178   0.03236   0.03331   0.03445   0.03523
     Eigenvalues ---    0.03603   0.03707   0.03802   0.03863   0.04191
     Eigenvalues ---    0.04233   0.04391   0.04456   0.04588   0.04610
     Eigenvalues ---    0.04651   0.04673   0.04687   0.04698   0.04723
     Eigenvalues ---    0.04733   0.04778   0.04810   0.04886   0.04929
     Eigenvalues ---    0.04966   0.05017   0.05100   0.05245   0.05273
     Eigenvalues ---    0.05359   0.05406   0.05421   0.05426   0.05428
     Eigenvalues ---    0.05433   0.05471   0.05498   0.05507   0.05541
     Eigenvalues ---    0.05571   0.05584   0.05639   0.05724   0.05827
     Eigenvalues ---    0.05954   0.06134   0.06581   0.06929   0.07013
     Eigenvalues ---    0.07254   0.07445   0.07548   0.07756   0.08064
     Eigenvalues ---    0.08112   0.08169   0.08571   0.08696   0.08863
     Eigenvalues ---    0.08903   0.08968   0.09180   0.09346   0.09545
     Eigenvalues ---    0.10176   0.10283   0.10758   0.11334   0.11955
     Eigenvalues ---    0.12556   0.12612   0.12628   0.12863   0.13683
     Eigenvalues ---    0.13886   0.14108   0.14799   0.15559   0.15695
     Eigenvalues ---    0.16000   0.16000   0.16000   0.16000   0.16000
     Eigenvalues ---    0.16000   0.16000   0.16000   0.16000   0.16000
     Eigenvalues ---    0.16000   0.16000   0.16000   0.16000   0.16026
     Eigenvalues ---    0.16318   0.16435   0.16594   0.16837   0.16970
     Eigenvalues ---    0.17410   0.17871   0.18196   0.19169   0.19875
     Eigenvalues ---    0.21506   0.21841   0.21893   0.21973   0.22318
     Eigenvalues ---    0.22601   0.24500   0.25081   0.26032   0.26062
     Eigenvalues ---    0.26861   0.26973   0.26984   0.27287   0.27475
     Eigenvalues ---    0.27704   0.27864   0.27980   0.28348   0.28460
     Eigenvalues ---    0.28531   0.28671   0.28800   0.28900   0.29005
     Eigenvalues ---    0.29214   0.29279   0.29347   0.29478   0.29490
     Eigenvalues ---    0.29934   0.31082   0.31793   0.33251   0.33423
     Eigenvalues ---    0.33540   0.33777   0.33833   0.33891   0.33909
     Eigenvalues ---    0.33934   0.33954   0.33993   0.34006   0.34013
     Eigenvalues ---    0.34019   0.34023   0.34043   0.34060   0.34071
     Eigenvalues ---    0.34097   0.34126   0.34133   0.34136   0.34137
     Eigenvalues ---    0.34144   0.34151   0.34170   0.34198   0.34206
     Eigenvalues ---    0.34224   0.34229   0.34231   0.34240   0.34248
     Eigenvalues ---    0.34251   0.34259   0.34269   0.34283   0.34293
     Eigenvalues ---    0.34314   0.34354   0.34409   0.34431   0.34457
     Eigenvalues ---    0.34532   0.34747   0.35002   0.41592   0.52884
     Eigenvalues ---    0.53572
 En-DIIS/RFO-DIIS/Sim-DIIS IScMMF=       -3 using points:     3    2
 RFO step:  Lambda=-1.92071391D-04.
 NNeg= 0 NGDIIS= 2 SimSw=  2.50D-03 Rises=F DC= -4.86D-04 SmlDif=  1.00D-05
 NRisDI= 0 DoIntr=F SqrtH=F CThrHd= 10.0 CDAdj=  3.0
 RMS Error=  0.5471126215D-02 NUsed= 2 OKEnD=T EnDIS=F
 InvSVX:  RCond= 1.62D-02 Info=           0 Equed=N FErr=  1.47D-15 BErr=  3.86D-17
 DidBck=F Rises=F RFO-DIIS coefs:    1.08778   -0.08778
 Iteration  1 RMS(Cart)=  0.03474124 RMS(Int)=  0.00014557
 Iteration  2 RMS(Cart)=  0.00044903 RMS(Int)=  0.00000500
 Iteration  3 RMS(Cart)=  0.00000003 RMS(Int)=  0.00000500
 ITry= 1 IFail=0 DXMaxC= 1.53D-01 DCOld= 1.00D+10 DXMaxT= 8.11D-01 DXLimC= 3.00D+00 Rises=F
 Variable       Old X    -DE/DX   Delta X   Delta X   Delta X     New X
                                 (Linear)    (Quad)   (Total)
    R1        2.92769   0.00017   0.00049   0.00119   0.00168   2.92937
    R2        2.07216  -0.00011   0.00003  -0.00022  -0.00019   2.07198
    R3        2.06742  -0.00010   0.00000  -0.00026  -0.00026   2.06716
    R4        2.07046  -0.00019  -0.00005  -0.00055  -0.00059   2.06987
    R5        2.95151  -0.00019  -0.00000   0.00066   0.00065   2.95217
    R6        2.92336   0.00042  -0.00015   0.00199   0.00183   2.92520
    R7        2.97507   0.00058  -0.00009   0.00306   0.00297   2.97803
    R8        2.90855  -0.00038  -0.00027  -0.00218  -0.00245   2.90610
    R9        2.91394  -0.00046  -0.00002  -0.00188  -0.00190   2.91204
   R10        2.09003   0.00009   0.00019   0.00053   0.00072   2.09075
   R11        2.94193   0.00004  -0.00017  -0.00033  -0.00050   2.94142
   R12        2.91584   0.00015   0.00020   0.00035   0.00055   2.91639
   R13        2.07977   0.00002   0.00018   0.00035   0.00052   2.08029
   R14        2.97854  -0.00118   0.00010  -0.00399  -0.00389   2.97465
   R15        2.93311  -0.00083   0.00004  -0.00288  -0.00283   2.93028
   R16        2.08855  -0.00006   0.00006  -0.00005   0.00001   2.08856
   R17        2.94254   0.00000   0.00032   0.00058   0.00090   2.94344
   R18        2.91062   0.00027   0.00022   0.00186   0.00209   2.91271
   R19        2.95890   0.00012   0.00053   0.00118   0.00171   2.96061
   R20        2.06841  -0.00029  -0.00008  -0.00091  -0.00099   2.06742
   R21        2.07027  -0.00013  -0.00002  -0.00035  -0.00037   2.06990
   R22        2.07049   0.00010  -0.00014   0.00012  -0.00001   2.07048
   R23        2.54189   0.00048  -0.00016   0.00055   0.00039   2.54228
   R24        2.87244   0.00064  -0.00015   0.00208   0.00194   2.87437
   R25        2.84726  -0.00045  -0.00030  -0.00192  -0.00221   2.84505
   R26        2.06205  -0.00005   0.00007   0.00000   0.00007   2.06212
   R27        2.07817  -0.00009  -0.00001  -0.00019  -0.00019   2.07797
   R28        2.08714  -0.00004   0.00012   0.00019   0.00031   2.08746
   R29        2.90532  -0.00020  -0.00017  -0.00067  -0.00083   2.90449
   R30        2.07791  -0.00044  -0.00013  -0.00135  -0.00148   2.07643
   R31        2.08054  -0.00047   0.00005  -0.00116  -0.00111   2.07943
   R32        2.76911   0.00194   0.00014   0.00540   0.00554   2.77465
   R33        2.87849   0.00044   0.00008   0.00119   0.00126   2.87975
   R34        2.08385  -0.00067   0.00001  -0.00172  -0.00171   2.08214
   R35        1.84860   0.00020  -0.00009   0.00037   0.00027   1.84887
   R36        2.91151   0.00019  -0.00036   0.00028  -0.00008   2.91142
   R37        2.07346  -0.00036  -0.00014  -0.00115  -0.00129   2.07217
   R38        2.07521  -0.00035  -0.00001  -0.00096  -0.00097   2.07424
   R39        2.07232   0.00007  -0.00007   0.00011   0.00004   2.07236
   R40        2.08016  -0.00013  -0.00002  -0.00036  -0.00038   2.07979
   R41        2.92703  -0.00017  -0.00039  -0.00004  -0.00043   2.92660
   R42        2.07431  -0.00011  -0.00003  -0.00030  -0.00033   2.07399
   R43        2.07166   0.00021  -0.00006   0.00057   0.00051   2.07217
   R44        2.08140  -0.00013   0.00005  -0.00023  -0.00018   2.08122
   R45        2.07130  -0.00043  -0.00003  -0.00115  -0.00118   2.07012
   R46        2.94791  -0.00050  -0.00035  -0.00248  -0.00283   2.94509
   R47        2.07618  -0.00013   0.00005  -0.00024  -0.00019   2.07598
   R48        2.07119  -0.00015  -0.00004  -0.00044  -0.00048   2.07071
   R49        2.97588  -0.00074  -0.00002  -0.00205  -0.00207   2.97381
   R50        2.07462   0.00005   0.00004   0.00021   0.00025   2.07488
   R51        2.07043  -0.00003  -0.00008  -0.00017  -0.00025   2.07018
   R52        2.94254  -0.00017  -0.00016  -0.00081  -0.00098   2.94156
   R53        2.08651  -0.00006   0.00020   0.00014   0.00033   2.08685
   R54        2.93973   0.00023   0.00025   0.00112   0.00136   2.94109
   R55        2.91632   0.00002  -0.00010   0.00019   0.00009   2.91641
   R56        2.08055  -0.00000   0.00019   0.00031   0.00050   2.08104
   R57        2.92324  -0.00005  -0.00025  -0.00022  -0.00046   2.92277
   R58        2.07269  -0.00008  -0.00011  -0.00030  -0.00040   2.07228
   R59        2.08323  -0.00018   0.00008  -0.00031  -0.00024   2.08299
   R60        2.91968   0.00012  -0.00032   0.00026  -0.00006   2.91963
   R61        2.07797  -0.00026  -0.00000  -0.00068  -0.00068   2.07729
   R62        2.07660  -0.00033  -0.00007  -0.00095  -0.00102   2.07558
   R63        2.92631   0.00030   0.00012   0.00130   0.00142   2.92772
   R64        2.08277  -0.00015   0.00009  -0.00024  -0.00014   2.08262
   R65        2.07935  -0.00018   0.00002  -0.00042  -0.00040   2.07894
   R66        2.91469  -0.00011  -0.00010  -0.00018  -0.00028   2.91441
   R67        2.91699  -0.00031  -0.00037  -0.00117  -0.00154   2.91545
   R68        2.08144  -0.00007   0.00020   0.00015   0.00035   2.08179
   R69        2.07413  -0.00017   0.00001  -0.00040  -0.00039   2.07374
   R70        2.07156  -0.00017  -0.00007  -0.00051  -0.00058   2.07099
   R71        2.07701  -0.00003   0.00013   0.00014   0.00028   2.07729
   R72        2.07656  -0.00005   0.00012   0.00008   0.00020   2.07676
   R73        2.07428  -0.00015  -0.00005  -0.00040  -0.00045   2.07383
   R74        2.07387  -0.00013  -0.00003  -0.00035  -0.00038   2.07349
   R75        2.06706  -0.00054  -0.00006  -0.00150  -0.00156   2.06550
   R76        2.07575   0.00012   0.00014   0.00056   0.00070   2.07645
   R77        2.07079  -0.00036  -0.00008  -0.00104  -0.00112   2.06967
    A1        1.92827   0.00014   0.00010   0.00115   0.00125   1.92952
    A2        1.95871  -0.00016  -0.00019  -0.00138  -0.00157   1.95713
    A3        1.95128  -0.00015  -0.00027  -0.00152  -0.00179   1.94949
    A4        1.87284   0.00005   0.00018   0.00101   0.00119   1.87403
    A5        1.87526   0.00002   0.00006   0.00040   0.00046   1.87572
    A6        1.87347   0.00012   0.00015   0.00048   0.00064   1.87410
    A7        1.96243  -0.00007  -0.00009  -0.00087  -0.00095   1.96148
    A8        1.93371   0.00008   0.00047   0.00169   0.00215   1.93586
    A9        1.92319  -0.00006   0.00021   0.00041   0.00062   1.92381
   A10        1.85758  -0.00013  -0.00008  -0.00375  -0.00383   1.85375
   A11        1.74587  -0.00007  -0.00040   0.00012  -0.00029   1.74558
   A12        2.03314   0.00022  -0.00023   0.00193   0.00170   2.03484
   A13        2.01090  -0.00009   0.00058  -0.00031   0.00026   2.01116
   A14        1.81991  -0.00009   0.00009   0.00239   0.00248   1.82239
   A15        1.83494   0.00014  -0.00080  -0.00032  -0.00112   1.83382
   A16        2.07131   0.00015  -0.00015   0.00035   0.00021   2.07153
   A17        1.84642   0.00003   0.00012   0.00043   0.00056   1.84698
   A18        1.86276  -0.00015   0.00001  -0.00296  -0.00295   1.85981
   A19        1.91560  -0.00001  -0.00016  -0.00205  -0.00223   1.91337
   A20        1.93294   0.00018  -0.00050   0.00136   0.00087   1.93381
   A21        1.90698  -0.00004   0.00039   0.00016   0.00055   1.90753
   A22        1.91581  -0.00014  -0.00009   0.00000  -0.00009   1.91572
   A23        1.90619   0.00007  -0.00003   0.00058   0.00055   1.90674
   A24        1.88590  -0.00006   0.00041  -0.00002   0.00039   1.88630
   A25        1.96276   0.00023  -0.00011   0.00072   0.00058   1.96334
   A26        1.95821   0.00019  -0.00031  -0.00338  -0.00371   1.95450
   A27        1.84201  -0.00012  -0.00029   0.00295   0.00266   1.84467
   A28        1.98060  -0.00064   0.00042  -0.00537  -0.00496   1.97564
   A29        1.84345   0.00016  -0.00029   0.00232   0.00204   1.84548
   A30        1.86431   0.00022   0.00057   0.00411   0.00469   1.86900
   A31        1.95161  -0.00048   0.00066  -0.00480  -0.00414   1.94747
   A32        1.91832   0.00009  -0.00041   0.00133   0.00093   1.91924
   A33        1.89519   0.00001   0.00020  -0.00221  -0.00202   1.89317
   A34        1.89605   0.00034  -0.00016   0.00549   0.00533   1.90138
   A35        1.91052   0.00013   0.00013   0.00055   0.00067   1.91119
   A36        1.89125  -0.00009  -0.00045  -0.00025  -0.00070   1.89055
   A37        1.94171   0.00015  -0.00037   0.00089   0.00052   1.94224
   A38        1.93863  -0.00011  -0.00031  -0.00154  -0.00185   1.93679
   A39        1.94407  -0.00039  -0.00025  -0.00294  -0.00319   1.94088
   A40        1.87357   0.00005   0.00029   0.00130   0.00159   1.87516
   A41        1.87046   0.00020   0.00042   0.00257   0.00299   1.87345
   A42        1.89236   0.00013   0.00029  -0.00002   0.00025   1.89261
   A43        2.14723  -0.00021   0.00024  -0.00014   0.00007   2.14730
   A44        2.03147   0.00021   0.00014   0.00173   0.00186   2.03333
   A45        2.10442  -0.00000  -0.00038  -0.00146  -0.00187   2.10255
   A46        2.18403  -0.00003  -0.00006  -0.00029  -0.00035   2.18368
   A47        2.07200  -0.00001  -0.00021  -0.00049  -0.00069   2.07131
   A48        2.02715   0.00004   0.00026   0.00077   0.00104   2.02819
   A49        1.97389   0.00001  -0.00007  -0.00102  -0.00109   1.97280
   A50        1.91783  -0.00001   0.00049   0.00072   0.00121   1.91905
   A51        1.90603  -0.00004  -0.00037  -0.00080  -0.00117   1.90485
   A52        1.91208  -0.00006   0.00002  -0.00078  -0.00076   1.91132
   A53        1.90824   0.00010   0.00028   0.00250   0.00279   1.91102
   A54        1.84102   0.00000  -0.00039  -0.00057  -0.00095   1.84007
   A55        1.95827  -0.00007  -0.00113  -0.00191  -0.00304   1.95523
   A56        1.91042   0.00011  -0.00004   0.00015   0.00012   1.91053
   A57        1.93485  -0.00001   0.00000   0.00052   0.00051   1.93535
   A58        1.92432  -0.00003   0.00065   0.00122   0.00186   1.92618
   A59        1.86969  -0.00003  -0.00027  -0.00184  -0.00212   1.86757
   A60        1.86372   0.00003   0.00091   0.00204   0.00295   1.86667
   A61        1.94485  -0.00010  -0.00064  -0.00021  -0.00087   1.94398
   A62        1.93172  -0.00017  -0.00005  -0.00093  -0.00100   1.93072
   A63        1.90931   0.00019   0.00106   0.00219   0.00324   1.91255
   A64        1.86066   0.00045  -0.00157   0.00077  -0.00080   1.85986
   A65        1.90400  -0.00028  -0.00029  -0.00402  -0.00430   1.89971
   A66        1.91254  -0.00009   0.00150   0.00214   0.00363   1.91617
   A67        1.94360  -0.00031  -0.00143  -0.00273  -0.00416   1.93944
   A68        1.93212   0.00038  -0.00079   0.00079  -0.00001   1.93211
   A69        1.91052  -0.00020   0.00036   0.00012   0.00049   1.91101
   A70        1.89597  -0.00022  -0.00002  -0.00324  -0.00326   1.89271
   A71        1.92101  -0.00011   0.00007   0.00055   0.00061   1.92162
   A72        1.94136  -0.00002  -0.00030  -0.00064  -0.00094   1.94043
   A73        1.86126   0.00015   0.00076   0.00243   0.00318   1.86444
   A74        2.00398  -0.00020  -0.00014  -0.00174  -0.00188   2.00210
   A75        1.90671  -0.00016   0.00014  -0.00008   0.00006   1.90677
   A76        1.88792   0.00007  -0.00018  -0.00189  -0.00208   1.88584
   A77        1.89975   0.00039  -0.00007   0.00340   0.00333   1.90308
   A78        1.89831  -0.00006  -0.00013  -0.00036  -0.00049   1.89781
   A79        1.86203  -0.00003   0.00042   0.00081   0.00123   1.86327
   A80        1.99153  -0.00014  -0.00002   0.00101   0.00097   1.99249
   A81        1.91025   0.00003   0.00045   0.00068   0.00113   1.91138
   A82        1.92008  -0.00026  -0.00030  -0.00435  -0.00465   1.91543
   A83        1.88981   0.00017   0.00010   0.00208   0.00218   1.89199
   A84        1.89335   0.00027  -0.00047   0.00135   0.00089   1.89423
   A85        1.85356  -0.00007   0.00027  -0.00080  -0.00053   1.85303
   A86        1.94909   0.00017  -0.00054   0.00272   0.00218   1.95127
   A87        1.89646  -0.00011  -0.00018  -0.00213  -0.00231   1.89416
   A88        1.94801   0.00012   0.00002   0.00146   0.00148   1.94949
   A89        1.91206  -0.00009   0.00006  -0.00094  -0.00088   1.91118
   A90        1.89360  -0.00013   0.00026  -0.00127  -0.00101   1.89259
   A91        1.86247   0.00003   0.00044   0.00000   0.00044   1.86291
   A92        1.81093   0.00019  -0.00026   0.00001  -0.00025   1.81067
   A93        1.93053  -0.00003   0.00002   0.00024   0.00026   1.93079
   A94        1.96250  -0.00014   0.00005  -0.00120  -0.00116   1.96134
   A95        1.94032  -0.00007  -0.00014   0.00000  -0.00014   1.94018
   A96        1.95577  -0.00005   0.00008  -0.00001   0.00007   1.95584
   A97        1.86541   0.00008   0.00025   0.00091   0.00116   1.86657
   A98        1.87026   0.00016   0.00012   0.00200   0.00211   1.87237
   A99        1.93577   0.00004  -0.00008  -0.00127  -0.00136   1.93441
   A100       1.93963  -0.00012  -0.00022   0.00072   0.00049   1.94012
   A101       1.92445  -0.00016  -0.00050  -0.00332  -0.00382   1.92064
   A102       1.93459  -0.00001   0.00046   0.00128   0.00174   1.93633
   A103       1.86009   0.00007   0.00021   0.00051   0.00072   1.86080
   A104       1.80251  -0.00012  -0.00014   0.00134   0.00120   1.80370
   A105       2.08396   0.00074  -0.00049   0.00435   0.00386   2.08782
   A106       1.85352  -0.00016  -0.00035  -0.00022  -0.00058   1.85294
   A107       1.96361  -0.00055   0.00027  -0.00619  -0.00592   1.95769
   A108       1.88753   0.00002   0.00043  -0.00089  -0.00046   1.88707
   A109       1.86321   0.00004   0.00034   0.00143   0.00176   1.86497
   A110       1.91527  -0.00076   0.00019  -0.00403  -0.00385   1.91142
   A111       1.97115   0.00065  -0.00011   0.00500   0.00489   1.97605
   A112       1.87612   0.00000   0.00010  -0.00112  -0.00103   1.87509
   A113       1.92642   0.00023  -0.00009   0.00194   0.00186   1.92827
   A114       1.88442   0.00007   0.00010  -0.00234  -0.00224   1.88218
   A115       1.88762  -0.00021  -0.00019   0.00022   0.00003   1.88765
   A116       2.03191   0.00061  -0.00016   0.00270   0.00254   2.03444
   A117       1.90570  -0.00032  -0.00013  -0.00363  -0.00376   1.90195
   A118       1.88547  -0.00015   0.00022   0.00102   0.00123   1.88670
   A119       1.89409  -0.00017  -0.00012  -0.00177  -0.00188   1.89220
   A120       1.88764  -0.00007  -0.00013   0.00180   0.00167   1.88931
   A121       1.85072   0.00007   0.00038  -0.00029   0.00009   1.85081
   A122       2.02043  -0.00016  -0.00066  -0.00131  -0.00197   2.01845
   A123       1.88415  -0.00006   0.00004  -0.00080  -0.00076   1.88339
   A124       1.91519   0.00015   0.00015   0.00131   0.00146   1.91665
   A125       1.90625   0.00017   0.00014   0.00124   0.00138   1.90763
   A126       1.88982  -0.00001  -0.00011  -0.00014  -0.00025   1.88957
   A127       1.83960  -0.00008   0.00055  -0.00019   0.00036   1.83996
   A128       2.02821   0.00026  -0.00042   0.00090   0.00048   2.02869
   A129       1.89069  -0.00006   0.00000   0.00084   0.00084   1.89153
   A130       1.90772  -0.00005   0.00004  -0.00061  -0.00057   1.90715
   A131       1.88596  -0.00002   0.00033   0.00114   0.00147   1.88742
   A132       1.89354  -0.00017  -0.00022  -0.00216  -0.00238   1.89116
   A133       1.84957   0.00002   0.00033  -0.00016   0.00018   1.84975
   A134       1.95941   0.00013  -0.00001   0.00096   0.00095   1.96036
   A135       1.92269  -0.00002  -0.00007   0.00003  -0.00004   1.92265
   A136       1.88961  -0.00003  -0.00007  -0.00025  -0.00032   1.88929
   A137       1.92839  -0.00009  -0.00019  -0.00058  -0.00077   1.92762
   A138       1.88395  -0.00002   0.00004  -0.00022  -0.00018   1.88376
   A139       1.87710   0.00002   0.00033   0.00002   0.00035   1.87745
   A140       1.93433  -0.00006  -0.00002  -0.00044  -0.00046   1.93387
   A141       1.95585  -0.00000  -0.00032  -0.00016  -0.00048   1.95536
   A142       1.93020  -0.00007  -0.00018  -0.00076  -0.00094   1.92926
   A143       1.87788   0.00004   0.00045   0.00092   0.00137   1.87925
   A144       1.88055   0.00004   0.00004   0.00007   0.00011   1.88066
   A145       1.88223   0.00005   0.00006   0.00044   0.00050   1.88273
   A146       1.93190  -0.00004  -0.00016  -0.00070  -0.00086   1.93104
   A147       1.94194  -0.00000  -0.00025  -0.00013  -0.00038   1.94156
   A148       1.94050   0.00000  -0.00016  -0.00005  -0.00021   1.94029
   A149       1.88154   0.00001   0.00010   0.00001   0.00010   1.88164
   A150       1.88153   0.00000   0.00009  -0.00007   0.00002   1.88155
   A151       1.88402   0.00003   0.00042   0.00098   0.00140   1.88542
   A152       1.95507  -0.00005   0.00006  -0.00022  -0.00016   1.95491
   A153       1.93381   0.00000  -0.00032  -0.00021  -0.00054   1.93328
   A154       1.94147   0.00000  -0.00039  -0.00069  -0.00107   1.94039
   A155       1.88273   0.00005  -0.00017   0.00011  -0.00006   1.88266
   A156       1.86780  -0.00002   0.00084   0.00075   0.00159   1.86938
   A157       1.87960   0.00002   0.00002   0.00034   0.00036   1.87996
    D1       -3.09781   0.00001  -0.00194   0.00726   0.00532  -3.09250
    D2       -1.02159  -0.00014  -0.00178   0.00308   0.00129  -1.02030
    D3        1.25417   0.00017  -0.00153   0.00735   0.00583   1.26000
    D4       -1.00843   0.00006  -0.00178   0.00842   0.00664  -1.00179
    D5        1.06780  -0.00009  -0.00162   0.00423   0.00261   1.07041
    D6       -2.93963   0.00022  -0.00137   0.00851   0.00715  -2.93248
    D7        1.09782  -0.00001  -0.00191   0.00698   0.00507   1.10290
    D8       -3.10914  -0.00016  -0.00175   0.00280   0.00105  -3.10809
    D9       -0.83338   0.00015  -0.00150   0.00708   0.00558  -0.82779
   D10        1.07378   0.00003   0.00091  -0.00347  -0.00255   1.07122
   D11       -1.22735  -0.00003   0.00059  -0.00577  -0.00518  -1.23253
   D12        3.09905   0.00012   0.00085  -0.00332  -0.00247   3.09658
   D13       -1.04648   0.00006   0.00043  -0.00254  -0.00211  -1.04858
   D14        2.93558   0.00000   0.00011  -0.00484  -0.00473   2.93085
   D15        0.97879   0.00015   0.00036  -0.00239  -0.00202   0.97677
   D16        3.11387  -0.00010   0.00090  -0.00328  -0.00238   3.11149
   D17        0.81275  -0.00016   0.00058  -0.00558  -0.00501   0.80774
   D18       -1.14404  -0.00002   0.00083  -0.00313  -0.00229  -1.14634
   D19       -1.15194  -0.00001   0.00015  -0.00233  -0.00219  -1.15413
   D20        3.02022   0.00007   0.00054  -0.00147  -0.00092   3.01930
   D21        0.97114   0.00003   0.00011  -0.00100  -0.00089   0.97026
   D22        0.98653  -0.00013   0.00027  -0.00479  -0.00452   0.98200
   D23       -1.12450  -0.00005   0.00067  -0.00393  -0.00326  -1.12776
   D24        3.10961  -0.00009   0.00023  -0.00346  -0.00322   3.10639
   D25        2.91476  -0.00018  -0.00039  -0.00608  -0.00649   2.90828
   D26        0.80374  -0.00010   0.00001  -0.00522  -0.00522   0.79851
   D27       -1.24534  -0.00014  -0.00043  -0.00475  -0.00519  -1.25053
   D28        1.37871   0.00001  -0.00082   0.00729   0.00648   1.38518
   D29       -0.81624   0.00033  -0.00072   0.01142   0.01070  -0.80554
   D30       -2.92021  -0.00008  -0.00054   0.00679   0.00625  -2.91397
   D31       -0.69053   0.00015  -0.00060   0.00806   0.00746  -0.68307
   D32       -2.88548   0.00047  -0.00050   0.01218   0.01168  -2.87380
   D33        1.29374   0.00006  -0.00032   0.00755   0.00723   1.30096
   D34       -2.68280   0.00024  -0.00016   0.01165   0.01150  -2.67130
   D35        1.40543   0.00057  -0.00005   0.01577   0.01572   1.42115
   D36       -0.69854   0.00016   0.00012   0.01114   0.01127  -0.68727
   D37        0.98409   0.00016  -0.00067   0.01149   0.01081   0.99490
   D38        3.10215   0.00009  -0.00123   0.01102   0.00980   3.11194
   D39       -1.10565   0.00011  -0.00078   0.01193   0.01116  -1.09449
   D40       -3.12400   0.00008  -0.00010   0.01507   0.01496  -3.10904
   D41       -1.00595   0.00002  -0.00065   0.01460   0.01394  -0.99200
   D42        1.06945   0.00003  -0.00021   0.01551   0.01530   1.08475
   D43       -1.03462   0.00002  -0.00008   0.01177   0.01168  -1.02294
   D44        1.08343  -0.00005  -0.00063   0.01130   0.01067   1.09410
   D45       -3.12436  -0.00003  -0.00018   0.01221   0.01203  -3.11233
   D46       -0.60569  -0.00006  -0.00023   0.00060   0.00037  -0.60532
   D47        1.47646  -0.00004  -0.00054   0.00072   0.00019   1.47665
   D48       -2.72269  -0.00005  -0.00018   0.00125   0.00107  -2.72162
   D49       -2.87126   0.00003  -0.00100  -0.00147  -0.00246  -2.87372
   D50       -0.78911   0.00005  -0.00131  -0.00134  -0.00264  -0.79175
   D51        1.29493   0.00004  -0.00096  -0.00081  -0.00176   1.29316
   D52        1.33098   0.00000  -0.00108   0.00009  -0.00099   1.32999
   D53       -2.87005   0.00002  -0.00139   0.00022  -0.00117  -2.87122
   D54       -0.78602   0.00001  -0.00103   0.00074  -0.00029  -0.78631
   D55       -3.10328   0.00027  -0.00019   0.00076   0.00058  -3.10271
   D56       -0.84539  -0.00026   0.00002  -0.00900  -0.00897  -0.85436
   D57        1.17854   0.00003   0.00037  -0.00408  -0.00370   1.17485
   D58        1.05159   0.00014   0.00060   0.00039   0.00099   1.05258
   D59       -2.97370  -0.00039   0.00081  -0.00937  -0.00856  -2.98226
   D60       -0.94977  -0.00010   0.00116  -0.00444  -0.00328  -0.95305
   D61       -1.01306   0.00025   0.00017   0.00007   0.00024  -1.01283
   D62        1.24483  -0.00028   0.00038  -0.00970  -0.00931   1.23552
   D63       -3.01442   0.00001   0.00073  -0.00477  -0.00404  -3.01846
   D64       -2.85311  -0.00004   0.00053  -0.00264  -0.00211  -2.85522
   D65        1.28746   0.00004   0.00018  -0.00144  -0.00126   1.28621
   D66       -0.72407   0.00007   0.00058  -0.00070  -0.00013  -0.72419
   D67       -0.73518  -0.00003  -0.00007  -0.00431  -0.00439  -0.73957
   D68       -2.87779   0.00005  -0.00042  -0.00312  -0.00354  -2.88133
   D69        1.39386   0.00008  -0.00002  -0.00238  -0.00241   1.39145
   D70        1.34199  -0.00006   0.00008  -0.00363  -0.00355   1.33844
   D71       -0.80062   0.00002  -0.00026  -0.00243  -0.00269  -0.80332
   D72       -2.81216   0.00005   0.00013  -0.00170  -0.00156  -2.81372
   D73        1.31469   0.00014  -0.00053   0.01098   0.01044   1.32513
   D74       -0.79259  -0.00004  -0.00048   0.00630   0.00582  -0.78677
   D75       -2.85865   0.00001   0.00018   0.00715   0.00733  -2.85131
   D76       -0.93158   0.00024  -0.00037   0.01978   0.01941  -0.91216
   D77       -3.03885   0.00006  -0.00032   0.01511   0.01479  -3.02406
   D78        1.17827   0.00011   0.00034   0.01596   0.01631   1.19458
   D79       -2.96801   0.00021  -0.00109   0.01619   0.01510  -2.95292
   D80        1.20790   0.00003  -0.00105   0.01152   0.01047   1.21837
   D81       -0.85817   0.00008  -0.00039   0.01237   0.01199  -0.84617
   D82        0.86502  -0.00002   0.00137   0.00255   0.00391   0.86893
   D83        2.98547   0.00013   0.00181   0.00644   0.00824   2.99371
   D84       -1.26739  -0.00008   0.00222   0.00337   0.00558  -1.26180
   D85        3.11362  -0.00009   0.00130  -0.00414  -0.00282   3.11080
   D86       -1.04912   0.00006   0.00174  -0.00025   0.00151  -1.04761
   D87        0.98121  -0.00015   0.00216  -0.00331  -0.00114   0.98006
   D88       -1.14540  -0.00010   0.00154  -0.00165  -0.00011  -1.14550
   D89        0.97506   0.00004   0.00198   0.00224   0.00422   0.97927
   D90        3.00538  -0.00017   0.00239  -0.00083   0.00156   3.00694
   D91       -2.99856  -0.00010   0.00269  -0.00707  -0.00437  -3.00294
   D92       -0.91254  -0.00002   0.00260  -0.00585  -0.00325  -0.91579
   D93        1.19889  -0.00019   0.00258  -0.00895  -0.00637   1.19253
   D94       -0.87839  -0.00006   0.00250  -0.00477  -0.00228  -0.88067
   D95        1.20764   0.00002   0.00240  -0.00355  -0.00116   1.20648
   D96       -2.96412  -0.00015   0.00239  -0.00665  -0.00427  -2.96839
   D97        1.18370   0.00011   0.00194  -0.00157   0.00037   1.18407
   D98       -3.01346   0.00019   0.00185  -0.00036   0.00149  -3.01196
   D99       -0.90203   0.00001   0.00183  -0.00345  -0.00162  -0.90365
   D100       0.25863  -0.00013   0.00001  -0.00908  -0.00907   0.24955
   D101      -2.89520  -0.00005  -0.00032   0.00308   0.00276  -2.89244
   D102      -1.88182   0.00018  -0.00044  -0.00753  -0.00798  -1.88980
   D103       1.24754   0.00026  -0.00078   0.00463   0.00386   1.25139
   D104       2.32712  -0.00012  -0.00026  -0.01114  -0.01140   2.31571
   D105      -0.82671  -0.00004  -0.00059   0.00102   0.00044  -0.82628
   D106       2.94246  -0.00004  -0.00036  -0.00107  -0.00143   2.94103
   D107      -1.20131   0.00021  -0.00044   0.00208   0.00164  -1.19967
   D108       0.81918   0.00013   0.00004   0.00196   0.00200   0.82118
   D109      -1.20571  -0.00053   0.00065  -0.00803  -0.00738  -1.21309
   D110       0.93370  -0.00029   0.00058  -0.00488  -0.00430   0.92940
   D111       2.95418  -0.00037   0.00105  -0.00499  -0.00394   2.95024
   D112       0.85936  -0.00010   0.00027  -0.00126  -0.00099   0.85838
   D113       2.99878   0.00014   0.00020   0.00189   0.00209   3.00086
   D114      -1.26392   0.00006   0.00067   0.00177   0.00244  -1.26148
   D115       0.02773   0.00009   0.00046   0.00540   0.00586   0.03359
   D116      -3.11897   0.00009   0.00020   0.00584   0.00603  -3.11294
   D117      -3.10113   0.00000   0.00080  -0.00727  -0.00646  -3.10759
   D118       0.03535   0.00001   0.00054  -0.00684  -0.00629   0.02907
   D119       0.90416   0.00002   0.00131  -0.00020   0.00111   0.90527
   D120       3.04630   0.00001   0.00134   0.00016   0.00150   3.04780
   D121      -1.18545   0.00011   0.00242   0.00306   0.00549  -1.17996
   D122      -2.24935   0.00009   0.00099   0.01165   0.01264  -2.23671
   D123      -0.10721   0.00009   0.00102   0.01201   0.01303  -0.09418
   D124       1.94423   0.00019   0.00211   0.01491   0.01702   1.96125
   D125       0.22069   0.00010  -0.00046   0.00198   0.00151   0.22220
   D126       2.36649   0.00005   0.00014   0.00162   0.00176   2.36825
   D127      -1.90711   0.00008  -0.00015   0.00190   0.00175  -1.90536
   D128      -2.91592   0.00009  -0.00021   0.00156   0.00135  -2.91457
   D129      -0.77011   0.00004   0.00039   0.00120   0.00160  -0.76852
   D130       1.23947   0.00007   0.00010   0.00148   0.00159   1.24105
   D131      -3.01774  -0.00011   0.00042  -0.00163  -0.00121  -3.01896
   D132      -0.95043   0.00027  -0.00201  -0.00141  -0.00342  -0.95385
   D133       1.15864   0.00018   0.00049   0.00208   0.00257   1.16121
   D134       1.13118  -0.00019   0.00078  -0.00136  -0.00058   1.13059
   D135      -3.08470   0.00019  -0.00164  -0.00115  -0.00279  -3.08749
   D136      -0.97563   0.00010   0.00085   0.00235   0.00320  -0.97242
   D137      -0.89052  -0.00019  -0.00048  -0.00339  -0.00386  -0.89438
   D138       1.17680   0.00019  -0.00290  -0.00317  -0.00607   1.17073
   D139      -2.99732   0.00010  -0.00041   0.00032  -0.00008  -2.99740
   D140      -1.06533  -0.00001  -0.00091  -0.00176  -0.00267  -1.06800
   D141       3.10842  -0.00003   0.00056  -0.00099  -0.00043   3.10799
   D142       1.04457  -0.00002  -0.00018  -0.00183  -0.00202   1.04255
   D143       0.98237   0.00007   0.00202   0.00455   0.00658   0.98895
   D144       3.10304   0.00005   0.00183   0.00583   0.00766   3.11069
   D145      -1.15407  -0.00000   0.00291   0.00699   0.00990  -1.14418
   D146       3.10018   0.00013   0.00020   0.00423   0.00445   3.10462
   D147      -1.06234   0.00011   0.00001   0.00551   0.00553  -1.05681
   D148       0.96373   0.00006   0.00110   0.00666   0.00777   0.97150
   D149      -1.12478   0.00000  -0.00022   0.00103   0.00081  -1.12397
   D150       0.99589  -0.00002  -0.00041   0.00230   0.00189   0.99778
   D151       3.02196  -0.00007   0.00068   0.00346   0.00413   3.02610
   D152      -0.97367  -0.00008  -0.00089  -0.00225  -0.00314  -0.97682
   D153      -3.11683  -0.00003  -0.00093  -0.00353  -0.00446  -3.12129
   D154       1.14395  -0.00017  -0.00133  -0.00615  -0.00747   1.13648
   D155      -3.08815  -0.00001  -0.00087  -0.00329  -0.00416  -3.09231
   D156       1.05187   0.00004  -0.00091  -0.00457  -0.00547   1.04640
   D157      -0.97053  -0.00010  -0.00130  -0.00718  -0.00848  -0.97901
   D158       1.13606  -0.00011  -0.00167  -0.00624  -0.00791   1.12815
   D159      -1.00710  -0.00007  -0.00170  -0.00752  -0.00922  -1.01633
   D160      -3.02950  -0.00020  -0.00210  -0.01014  -0.01223  -3.04174
   D161      -0.95543   0.00017  -0.00146   0.00240   0.00095  -0.95448
   D162       1.14649   0.00009  -0.00200   0.00086  -0.00113   1.14536
   D163      -3.10966  -0.00000  -0.00131  -0.00036  -0.00166  -3.11132
   D164      -3.08714   0.00010  -0.00209  -0.00068  -0.00277  -3.08990
   D165      -0.98522   0.00001  -0.00263  -0.00221  -0.00485  -0.99006
   D166       1.04182  -0.00008  -0.00194  -0.00344  -0.00538   1.03644
   D167       1.19158  -0.00005  -0.00222  -0.00153  -0.00374   1.18784
   D168      -2.98969  -0.00014  -0.00275  -0.00307  -0.00582  -2.99551
   D169      -0.96265  -0.00023  -0.00206  -0.00429  -0.00635  -0.96900
   D170       0.15828   0.00007  -0.00027   0.00347   0.00321   0.16149
   D171       2.25961   0.00000  -0.00085  -0.00007  -0.00091   2.25870
   D172      -1.95771   0.00005  -0.00078   0.00020  -0.00058  -1.95829
   D173      -1.91716   0.00002  -0.00006   0.00318   0.00312  -1.91404
   D174       0.18417  -0.00004  -0.00064  -0.00036  -0.00100   0.18316
   D175       2.25003  -0.00000  -0.00057  -0.00009  -0.00067   2.24936
   D176       2.27978  -0.00000  -0.00033   0.00203   0.00169   2.28148
   D177      -1.90207  -0.00007  -0.00091  -0.00152  -0.00243  -1.90450
   D178       0.16379  -0.00003  -0.00084  -0.00125  -0.00209   0.16170
   D179       0.33885  -0.00013   0.00062  -0.00675  -0.00614   0.33271
   D180       2.60906   0.00035   0.00007  -0.00432  -0.00426   2.60480
   D181      -1.62064   0.00009   0.00091  -0.00675  -0.00585  -1.62648
   D182      -1.76967  -0.00019   0.00093  -0.00450  -0.00357  -1.77324
   D183       0.50054   0.00030   0.00038  -0.00207  -0.00169   0.49885
   D184       2.55403   0.00003   0.00122  -0.00451  -0.00328   2.55075
   D185       2.45801  -0.00018   0.00070  -0.00384  -0.00315   2.45487
   D186      -1.55496   0.00031   0.00015  -0.00141  -0.00126  -1.55623
   D187       0.49853   0.00005   0.00099  -0.00385  -0.00285   0.49568
   D188       3.14024  -0.00035   0.00055  -0.02340  -0.02286   3.11739
   D189      -0.98558  -0.00016   0.00050  -0.02033  -0.01984  -1.00542
   D190       1.09512  -0.00003   0.00027  -0.01781  -0.01755   1.07757
   D191       1.02398  -0.00029   0.00090  -0.02325  -0.02234   1.00164
   D192      -3.10184  -0.00010   0.00086  -0.02018  -0.01932  -3.12116
   D193      -1.02114   0.00003   0.00063  -0.01766  -0.01703  -1.03818
   D194      -1.04385  -0.00003   0.00002  -0.01957  -0.01954  -1.06339
   D195       1.11351   0.00017  -0.00002  -0.01650  -0.01652   1.09699
   D196      -3.08897   0.00029  -0.00026  -0.01398  -0.01423  -3.10321
   D197      -3.06851   0.00039  -0.00041   0.01895   0.01854  -3.04997
   D198      -0.91713   0.00035  -0.00080   0.01561   0.01480  -0.90233
   D199       1.08813   0.00018  -0.00031   0.01392   0.01361   1.10174
   D200       1.03132  -0.00006  -0.00035   0.01407   0.01372   1.04504
   D201      -3.10049  -0.00010  -0.00074   0.01072   0.00998  -3.09050
   D202      -1.09523  -0.00027  -0.00024   0.00903   0.00879  -1.08644
   D203      -1.02859   0.00003  -0.00013   0.01409   0.01397  -1.01462
   D204       1.12279  -0.00002  -0.00052   0.01075   0.01023   1.13302
   D205       3.12804  -0.00018  -0.00002   0.00906   0.00904   3.13708
   D206       1.13293   0.00021  -0.00184  -0.00667  -0.00852   1.12441
   D207      -0.97041   0.00018  -0.00144  -0.00651  -0.00795  -0.97836
   D208      -3.06067   0.00015  -0.00100  -0.00634  -0.00734  -3.06801
   D209      -2.99905  -0.00014  -0.00173  -0.00687  -0.00860  -3.00765
   D210       1.18080  -0.00017  -0.00133  -0.00671  -0.00803   1.17276
   D211      -0.90947  -0.00020  -0.00089  -0.00654  -0.00742  -0.91689
   D212      -0.94110  -0.00005  -0.00178  -0.00846  -0.01024  -0.95134
   D213      -3.04444  -0.00007  -0.00138  -0.00830  -0.00968  -3.05411
   D214       1.14848  -0.00011  -0.00093  -0.00813  -0.00906   1.13942
   D215       1.01731  -0.00014   0.00354  -0.00292   0.00062   1.01793
   D216      -3.12391  -0.00008   0.00330  -0.00283   0.00047  -3.12344
   D217      -1.12757  -0.00013   0.00405  -0.00281   0.00123  -1.12634
   D218      -1.14007  -0.00001   0.00394   0.00139   0.00532  -1.13475
   D219       1.00189   0.00005   0.00370   0.00148   0.00517   1.00706
   D220       2.99822  -0.00000   0.00444   0.00150   0.00594   3.00416
   D221      -3.14046   0.00003   0.00361   0.00171   0.00532  -3.13514
   D222      -0.99851   0.00009   0.00337   0.00180   0.00517  -0.99333
   D223       0.99783   0.00004   0.00412   0.00182   0.00594   1.00377
   D224       1.03694  -0.00011   0.00306   0.00185   0.00491   1.04186
   D225      -3.12037   0.00000   0.00321   0.00463   0.00784  -3.11253
   D226      -1.11261  -0.00003   0.00363   0.00457   0.00820  -1.10441
   D227      -1.09330  -0.00005   0.00337   0.00287   0.00623  -1.08707
   D228       1.03258   0.00007   0.00352   0.00565   0.00916   1.04174
   D229       3.04033   0.00003   0.00394   0.00559   0.00952   3.04986
   D230      -3.08804  -0.00004   0.00271   0.00252   0.00523  -3.08281
   D231      -0.96216   0.00008   0.00285   0.00530   0.00816  -0.95401
   D232       1.04560   0.00004   0.00328   0.00524   0.00852   1.05411
   D233       1.05897   0.00006   0.00172   0.00194   0.00366   1.06263
   D234      -3.06716   0.00002   0.00142   0.00190   0.00331  -3.06385
   D235      -1.01898   0.00002   0.00173   0.00179   0.00352  -1.01545
   D236      -1.06941  -0.00003   0.00175  -0.00068   0.00107  -1.06834
   D237       1.08765  -0.00007   0.00144  -0.00072   0.00072   1.08837
   D238       3.13583  -0.00007   0.00176  -0.00082   0.00093   3.13677
   D239      -3.06729   0.00004   0.00129   0.00003   0.00132  -3.06597
   D240      -0.91023   0.00000   0.00099  -0.00002   0.00097  -0.90926
   D241       1.13795   0.00000   0.00130  -0.00012   0.00118   1.13913
   D242       3.10532  -0.00000   0.00075   0.00551   0.00626   3.11158
   D243      -1.07983   0.00001   0.00110   0.00627   0.00737  -1.07246
   D244       1.02090   0.00003   0.00083   0.00620   0.00703   1.02793
   D245       0.95145  -0.00001   0.00099   0.00521   0.00620   0.95765
   D246       3.04949   0.00000   0.00134   0.00597   0.00730   3.05680
   D247      -1.13296   0.00002   0.00107   0.00590   0.00696  -1.12600
   D248      -1.09660   0.00003   0.00068   0.00563   0.00631  -1.09028
   D249       1.00144   0.00004   0.00103   0.00639   0.00742   1.00886
   D250       3.10217   0.00006   0.00076   0.00632   0.00708   3.10925
   D251      -1.09448  -0.00003   0.00009   0.00187   0.00196  -1.09252
   D252       0.99727  -0.00005  -0.00007   0.00133   0.00126   0.99853
   D253       3.09792  -0.00001   0.00019   0.00246   0.00264   3.10057
   D254       1.08051   0.00006  -0.00011   0.00272   0.00260   1.08312
   D255      -3.11093   0.00004  -0.00026   0.00217   0.00191  -3.10902
   D256      -1.01027   0.00008  -0.00001   0.00330   0.00329  -1.00699
   D257       3.13278  -0.00000   0.00002   0.00215   0.00216   3.13494
   D258      -1.05866  -0.00002  -0.00014   0.00160   0.00146  -1.05719
   D259       1.04200   0.00002   0.00012   0.00273   0.00285   1.04484
         Item               Value     Threshold  Converged?
 Maximum Force            0.001936     0.000450     NO 
 RMS     Force            0.000213     0.000300     YES
 Maximum Displacement     0.153461     0.001800     NO 
 RMS     Displacement     0.034815     0.001200     NO 
 Predicted change in Energy=-9.742654D-05
 Lowest energy point so far.  Saving SCF results.
 GradGradGradGradGradGradGradGradGradGradGradGradGradGradGradGradGradGrad

 Leave Link  103 at Mon Jul 28 18:51:11 2025, MaxMem=  1073741824 cpu:               1.2 elap:               0.2
 (Enter /app/gaussian/g16/l202.exe)
 Stoichiometry    C27H46O
 Framework group  C1[X(C27H46O)]
 Deg. of freedom   216
 Full point group                 C1      NOp   1
 RotChk:  IX=0 Diff= 2.36D-02
 Largest Abelian subgroup         C1      NOp   1
 Largest concise Abelian subgroup C1      NOp   1
                         Standard orientation:                         
 ---------------------------------------------------------------------
 Center     Atomic      Atomic             Coordinates (Angstroms)
 Number     Number       Type             X           Y           Z
 ---------------------------------------------------------------------
      1          6           0       -0.996839   -0.315542    1.453386
      2          6           0       -0.735005   -0.429659   -0.070229
      3          6           0        0.094726    0.773051   -0.623012
      4          6           0        1.500641    0.931613   -0.020332
      5          6           0        2.313528   -0.377836   -0.237949
      6          6           0        3.748982   -0.309275    0.404401
      7          6           0        3.692593   -0.475146    1.952121
      8          6           0        4.411288    1.041699    0.069811
      9          6           0        3.727811    2.092438   -0.418745
     10          6           0        2.243088    2.120217   -0.666651
     11          6           0        5.908024    1.144375    0.320495
     12          6           0        6.683715   -0.004957   -0.342584
     13          8           0        8.100228    0.012473    0.043463
     14          6           0        6.129062   -1.353135    0.101302
     15          6           0        4.624042   -1.452947   -0.212679
     16          6           0        1.513079   -1.635621    0.188354
     17          6           0        0.080835   -1.703971   -0.396841
     18          6           0       -0.875480    1.968716   -0.561994
     19          6           0       -2.264032    1.335301   -0.877502
     20          6           0       -2.077469   -0.227255   -0.870418
     21          6           0       -3.366023   -0.970539   -0.411961
     22          6           0       -4.551615   -0.576545   -1.340073
     23          6           0       -5.944666   -1.126523   -0.953928
     24          6           0       -6.450720   -0.737572    0.453072
     25          6           0       -6.599328    0.779059    0.732414
     26          6           0       -7.610529    1.453187   -0.217072
     27          6           0       -7.003224    1.011755    2.203100
     28          6           0       -3.200832   -2.504357   -0.368540
     29          1           0       -1.536876   -1.197251    1.818260
     30          1           0       -0.068240   -0.240839    2.026728
     31          1           0       -1.602444    0.564463    1.695404
     32          1           0        0.249707    0.547115   -1.694928
     33          1           0        1.413469    1.129491    1.059068
     34          1           0        2.476354   -0.450821   -1.328669
     35          1           0        4.669652   -0.288079    2.407390
     36          1           0        2.982818    0.230960    2.396433
     37          1           0        3.391436   -1.490985    2.231099
     38          1           0        4.273238    3.007238   -0.656288
     39          1           0        1.826723    3.068481   -0.297074
     40          1           0        2.050912    2.119019   -1.754440
     41          1           0        6.274766    2.113734   -0.044473
     42          1           0        6.129190    1.102551    1.397615
     43          1           0        6.612341    0.085257   -1.438383
     44          1           0        8.532573    0.843272   -0.239518
     45          1           0        6.674080   -2.158036   -0.406145
     46          1           0        6.318485   -1.469700    1.176173
     47          1           0        4.249455   -2.422906    0.135887
     48          1           0        4.488745   -1.434385   -1.304750
     49          1           0        2.056652   -2.537924   -0.119698
     50          1           0        1.445140   -1.678453    1.281955
     51          1           0        0.135688   -1.813425   -1.491351
     52          1           0       -0.407297   -2.606682   -0.013598
     53          1           0       -0.865393    2.424656    0.437435
     54          1           0       -0.611133    2.757250   -1.275470
     55          1           0       -3.007351    1.628971   -0.124648
     56          1           0       -2.645175    1.679777   -1.845060
     57          1           0       -1.870798   -0.553179   -1.905099
     58          1           0       -3.603671   -0.622095    0.605311
     59          1           0       -4.613761    0.516951   -1.394371
     60          1           0       -4.315985   -0.919344   -2.360844
     61          1           0       -6.665714   -0.780228   -1.707934
     62          1           0       -5.946451   -2.222258   -1.029649
     63          1           0       -7.431589   -1.213756    0.613444
     64          1           0       -5.778649   -1.165358    1.211755
     65          1           0       -5.618503    1.256100    0.577449
     66          1           0       -7.719054    2.518698    0.021969
     67          1           0       -7.303095    1.377220   -1.266239
     68          1           0       -8.600702    0.985559   -0.120964
     69          1           0       -7.982940    0.559766    2.411936
     70          1           0       -6.274073    0.565292    2.891107
     71          1           0       -7.072666    2.082988    2.430224
     72          1           0       -2.465060   -2.816131    0.377198
     73          1           0       -2.875046   -2.888952   -1.344927
     74          1           0       -4.145488   -2.996991   -0.114681
 ---------------------------------------------------------------------
 Rotational constants (GHZ):           0.5294223           0.0603951           0.0581027
 Leave Link  202 at Mon Jul 28 18:51:11 2025, MaxMem=  1073741824 cpu:               0.1 elap:               0.0
 (Enter /app/gaussian/g16/l301.exe)
 Standard basis: 6-31+G (6D, 7F)
 Ernie: Thresh=  0.10000D-02 Tol=  0.10000D-05 Strict=F.
 There are   456 symmetry adapted cartesian basis functions of A   symmetry.
 There are   456 symmetry adapted basis functions of A   symmetry.
   456 basis functions,   912 primitive gaussians,   456 cartesian basis functions
   108 alpha electrons      108 beta electrons
       nuclear repulsion energy      2811.2716736853 Hartrees.
 IExCor=  402 DFT=T Ex+Corr=B3LYP ExCW=0 ScaHFX=  0.200000
 ScaDFX=  0.800000  0.720000  1.000000  0.810000 ScalE2=  1.000000  1.000000
 IRadAn=      5 IRanWt=     -1 IRanGd=            0 ICorTp=0 IEmpDi=  4
 NAtoms=   74 NActive=   74 NUniq=   74 SFac= 1.00D+00 NAtFMM=   60 NAOKFM=T Big=T
 Integral buffers will be    131072 words long.
 Raffenetti 2 integral format.
 Two-electron integral symmetry is turned on.
 Leave Link  301 at Mon Jul 28 18:51:12 2025, MaxMem=  1073741824 cpu:               0.4 elap:               0.1
 (Enter /app/gaussian/g16/l302.exe)
 NPDir=0 NMtPBC=     1 NCelOv=     1 NCel=       1 NClECP=     1 NCelD=      1
         NCelK=      1 NCelE2=     1 NClLst=     1 CellRange=     0.0.
 One-electron integrals computed using PRISM.
 One-electron integral symmetry used in STVInt
 NBasis=   456 RedAO= T EigKep=  1.02D-06  NBF=   456
 NBsUse=   455 1.00D-06 EigRej=  5.93D-07 NBFU=   455
 Precomputing XC quadrature grid using
 IXCGrd= 4 IRadAn=           5 IRanWt=          -1 IRanGd=           0 AccXCQ= 0.00D+00.
 Generated NRdTot=       0 NPtTot=           0 NUsed=           0 NTot=          32
 NSgBfM=   442   441   441   442   442 MxSgAt=    74 MxSgA2=    74.
 Leave Link  302 at Mon Jul 28 18:51:13 2025, MaxMem=  1073741824 cpu:              11.7 elap:               1.5
 (Enter /app/gaussian/g16/l303.exe)
 DipDrv:  MaxL=1.
 Leave Link  303 at Mon Jul 28 18:51:13 2025, MaxMem=  1073741824 cpu:               0.5 elap:               0.1
 (Enter /app/gaussian/g16/l401.exe)
 Initial guess from the checkpoint file:  "/work/scr/Gau-255599.chk"
 B after Tr=     0.000000   -0.000000    0.000000
         Rot=    0.999963    0.008649   -0.000345   -0.000024 Ang=   0.99 deg.
 Guess basis will be translated and rotated to current coordinates.
 JPrj=2 DoOrth=T DoCkMO=T.
 Generating alternative initial guess.
 ExpMin= 4.38D-02 ExpMax= 5.48D+03 ExpMxC= 8.25D+02 IAcc=3 IRadAn=         5 AccDes= 0.00D+00
 Harris functional with IExCor=  402 and IRadAn=       5 diagonalized for initial guess.
 HarFok:  IExCor=  402 AccDes= 0.00D+00 IRadAn=         5 IDoV= 1 UseB2=F ITyADJ=14
 ICtDFT=  3500011 ScaDFX=  1.000000  1.000000  1.000000  1.000000
 FoFCou: FMM=F IPFlag=           0 FMFlag=      100000 FMFlg1=        2001
         NFxFlg=           0 DoJE=T BraDBF=F KetDBF=T FulRan=T
         wScrn=  0.000000 ICntrl=       500 IOpCl=  0 I1Cent=   200000004 NGrid=           0
         NMat0=    1 NMatS0=      1 NMatT0=    0 NMatD0=    1 NMtDS0=    0 NMtDT0=    0
 Petite list used in FoFCou.
 Harris En= -1131.63615921363    
 Leave Link  401 at Mon Jul 28 18:51:23 2025, MaxMem=  1073741824 cpu:              77.4 elap:               9.7
 (Enter /app/gaussian/g16/l502.exe)
 Integral symmetry usage will be decided dynamically.
 Closed shell SCF:
 Using DIIS extrapolation, IDIIS=  1040.
 NGot=  1073741824 LenX=  1073314746 LenY=  1073106354
 Requested convergence on RMS density matrix=1.00D-08 within 128 cycles.
 Requested convergence on MAX density matrix=1.00D-06.
 Requested convergence on             energy=1.00D-06.
 No special actions if energy rises.
 Fock matrices will be formed incrementally for  20 cycles.

 Cycle   1  Pass 1  IDiag  1:
 FoFJK:  IHMeth= 1 ICntrl=       0 DoSepK=F KAlg= 0 I1Cent=           0 FoldK=F
 IRaf= 990000000 NMat=       1 IRICut=       1 DoRegI=T DoRafI=F ISym2E= 0 IDoP0=0 IntGTp=1.
 FoFCou: FMM=T IPFlag=           0 FMFlag=      100000 FMFlg1=        2001
         NFxFlg=           0 DoJE=F BraDBF=F KetDBF=F FulRan=T
         wScrn=  0.000000 ICntrl=         0 IOpCl=  0 I1Cent=           0 NGrid=           0
         NMat0=    1 NMatS0=      1 NMatT0=    0 NMatD0=    1 NMtDS0=    0 NMtDT0=    0
 Symmetry not used in FoFCou.
 FMM levels:  10  Number of levels for PrismC:   9
 E= -1131.55122166042    
 DIIS: error= 6.21D-03 at cycle   1 NSaved=   1.
 NSaved= 1 IEnMin= 1 EnMin= -1131.55122166042     IErMin= 1 ErrMin= 6.21D-03
 ErrMax= 6.21D-03  0.00D+00 EMaxC= 1.00D-01 BMatC= 8.58D-03 BMatP= 8.58D-03
 IDIUse=3 WtCom= 9.38D-01 WtEn= 6.21D-02
 Coeff-Com:  0.100D+01
 Coeff-En:   0.100D+01
 Coeff:      0.100D+01
 Gap=     0.520 Goal=   None    Shift=    0.000
 GapD=    0.520 DampG=2.000 DampE=1.000 DampFc=2.0000 IDamp=-1.
 RMSDP=3.19D-03 MaxDP=1.92D-01              OVMax= 1.38D-02

 Cycle   2  Pass 1  IDiag  1:
 RMSU=  3.17D-03    CP:  9.97D-01
 E= -1131.55713820985     Delta-E=       -0.005916549428 Rises=F Damp=F
 DIIS: error= 1.44D-04 at cycle   2 NSaved=   2.
 NSaved= 2 IEnMin= 2 EnMin= -1131.55713820985     IErMin= 2 ErrMin= 1.44D-04
 ErrMax= 1.44D-04  0.00D+00 EMaxC= 1.00D-01 BMatC= 4.12D-05 BMatP= 8.58D-03
 IDIUse=3 WtCom= 9.99D-01 WtEn= 1.44D-03
 Coeff-Com: -0.675D-02 0.101D+01
 Coeff-En:   0.000D+00 0.100D+01
 Coeff:     -0.674D-02 0.101D+01
 Gap=     0.232 Goal=   None    Shift=    0.000
 RMSDP=8.77D-04 MaxDP=6.33D-02 DE=-5.92D-03 OVMax= 3.73D-03

 Cycle   3  Pass 1  IDiag  1:
 RMSU=  8.69D-04    CP:  9.96D-01  9.66D-01
 E= -1131.55712651867     Delta-E=        0.000011691185 Rises=F Damp=F
 DIIS: error= 2.83D-04 at cycle   3 NSaved=   3.
 NSaved= 3 IEnMin= 2 EnMin= -1131.55713820985     IErMin= 2 ErrMin= 1.44D-04
 ErrMax= 2.83D-04  0.00D+00 EMaxC= 1.00D-01 BMatC= 7.07D-05 BMatP= 4.12D-05
 IDIUse=3 WtCom= 3.73D-01 WtEn= 6.27D-01
 Coeff-Com: -0.793D-02 0.579D+00 0.429D+00
 Coeff-En:   0.000D+00 0.550D+00 0.450D+00
 Coeff:     -0.296D-02 0.561D+00 0.442D+00
 Gap=     0.231 Goal=   None    Shift=    0.000
 RMSDP=4.50D-04 MaxDP=3.86D-02 DE= 1.17D-05 OVMax= 2.86D-03

 Cycle   4  Pass 1  IDiag  1:
 RMSU=  1.78D-04    CP:  9.96D-01  9.86D-01  5.30D-01
 E= -1131.55719567122     Delta-E=       -0.000069152547 Rises=F Damp=F
 DIIS: error= 9.11D-05 at cycle   4 NSaved=   4.
 NSaved= 4 IEnMin= 4 EnMin= -1131.55719567122     IErMin= 4 ErrMin= 9.11D-05
 ErrMax= 9.11D-05  0.00D+00 EMaxC= 1.00D-01 BMatC= 2.33D-06 BMatP= 4.12D-05
 IDIUse=1 WtCom= 1.00D+00 WtEn= 0.00D+00
 Coeff-Com: -0.284D-02 0.166D+00 0.196D+00 0.641D+00
 Coeff:     -0.284D-02 0.166D+00 0.196D+00 0.641D+00
 Gap=     0.231 Goal=   None    Shift=    0.000
 RMSDP=8.49D-05 MaxDP=5.40D-03 DE=-6.92D-05 OVMax= 1.06D-03

 Cycle   5  Pass 1  IDiag  1:
 RMSU=  7.48D-05    CP:  9.96D-01  9.87D-01  5.30D-01  8.22D-01
 E= -1131.55719717324     Delta-E=       -0.000001502028 Rises=F Damp=F
 DIIS: error= 5.40D-05 at cycle   5 NSaved=   5.
 NSaved= 5 IEnMin= 5 EnMin= -1131.55719717324     IErMin= 5 ErrMin= 5.40D-05
 ErrMax= 5.40D-05  0.00D+00 EMaxC= 1.00D-01 BMatC= 7.92D-07 BMatP= 2.33D-06
 IDIUse=1 WtCom= 1.00D+00 WtEn= 0.00D+00
 Coeff-Com: -0.225D-03-0.106D-01 0.408D-01 0.422D+00 0.548D+00
 Coeff:     -0.225D-03-0.106D-01 0.408D-01 0.422D+00 0.548D+00
 Gap=     0.231 Goal=   None    Shift=    0.000
 RMSDP=3.34D-05 MaxDP=2.35D-03 DE=-1.50D-06 OVMax= 4.61D-04

 Cycle   6  Pass 1  IDiag  1:
 RMSU=  2.14D-05    CP:  9.96D-01  9.86D-01  5.49D-01  8.54D-01  7.55D-01
 E= -1131.55719798197     Delta-E=       -0.000000808723 Rises=F Damp=F
 DIIS: error= 8.68D-06 at cycle   6 NSaved=   6.
 NSaved= 6 IEnMin= 6 EnMin= -1131.55719798197     IErMin= 6 ErrMin= 8.68D-06
 ErrMax= 8.68D-06  0.00D+00 EMaxC= 1.00D-01 BMatC= 2.92D-08 BMatP= 7.92D-07
 IDIUse=1 WtCom= 1.00D+00 WtEn= 0.00D+00
 Coeff-Com: -0.295D-05-0.127D-01 0.143D-01 0.200D+00 0.295D+00 0.503D+00
 Coeff:     -0.295D-05-0.127D-01 0.143D-01 0.200D+00 0.295D+00 0.503D+00
 Gap=     0.231 Goal=   None    Shift=    0.000
 RMSDP=8.07D-06 MaxDP=5.64D-04 DE=-8.09D-07 OVMax= 7.70D-05

 Cycle   7  Pass 1  IDiag  1:
 RMSU=  4.85D-06    CP:  9.96D-01  9.86D-01  5.50D-01  8.61D-01  7.37D-01
                    CP:  7.53D-01
 E= -1131.55719800848     Delta-E=       -0.000000026517 Rises=F Damp=F
 DIIS: error= 3.05D-06 at cycle   7 NSaved=   7.
 NSaved= 7 IEnMin= 7 EnMin= -1131.55719800848     IErMin= 7 ErrMin= 3.05D-06
 ErrMax= 3.05D-06  0.00D+00 EMaxC= 1.00D-01 BMatC= 3.73D-09 BMatP= 2.92D-08
 IDIUse=1 WtCom= 1.00D+00 WtEn= 0.00D+00
 Coeff-Com:  0.269D-04-0.570D-02 0.284D-02 0.546D-01 0.924D-01 0.295D+00
 Coeff-Com:  0.561D+00
 Coeff:      0.269D-04-0.570D-02 0.284D-02 0.546D-01 0.924D-01 0.295D+00
 Coeff:      0.561D+00
 Gap=     0.231 Goal=   None    Shift=    0.000
 RMSDP=3.18D-06 MaxDP=2.82D-04 DE=-2.65D-08 OVMax= 1.15D-05

 Cycle   8  Pass 1  IDiag  1:
 RMSU=  2.39D-06    CP:  9.96D-01  9.86D-01  5.52D-01  8.65D-01  7.30D-01
                    CP:  7.26D-01  7.61D-01
 E= -1131.55719801175     Delta-E=       -0.000000003267 Rises=F Damp=F
 DIIS: error= 3.57D-07 at cycle   8 NSaved=   8.
 NSaved= 8 IEnMin= 8 EnMin= -1131.55719801175     IErMin= 8 ErrMin= 3.57D-07
 ErrMax= 3.57D-07  0.00D+00 EMaxC= 1.00D-01 BMatC= 1.16D-10 BMatP= 3.73D-09
 IDIUse=1 WtCom= 1.00D+00 WtEn= 0.00D+00
 Coeff-Com:  0.129D-04-0.209D-02 0.681D-03 0.163D-01 0.294D-01 0.116D+00
 Coeff-Com:  0.259D+00 0.580D+00
 Coeff:      0.129D-04-0.209D-02 0.681D-03 0.163D-01 0.294D-01 0.116D+00
 Coeff:      0.259D+00 0.580D+00
 Gap=     0.231 Goal=   None    Shift=    0.000
 RMSDP=6.77D-07 MaxDP=5.13D-05 DE=-3.27D-09 OVMax= 1.62D-06

 Cycle   9  Pass 1  IDiag  1:
 RMSU=  4.59D-07    CP:  9.96D-01  9.86D-01  5.52D-01  8.64D-01  7.32D-01
                    CP:  7.36D-01  7.30D-01  8.69D-01
 E= -1131.55719801205     Delta-E=       -0.000000000296 Rises=F Damp=F
 DIIS: error= 1.13D-07 at cycle   9 NSaved=   9.
 NSaved= 9 IEnMin= 9 EnMin= -1131.55719801205     IErMin= 9 ErrMin= 1.13D-07
 ErrMax= 1.13D-07  0.00D+00 EMaxC= 1.00D-01 BMatC= 1.13D-11 BMatP= 1.16D-10
 IDIUse=1 WtCom= 1.00D+00 WtEn= 0.00D+00
 Coeff-Com:  0.204D-05-0.168D-03-0.847D-04-0.911D-04 0.564D-03 0.133D-01
 Coeff-Com:  0.421D-01 0.262D+00 0.682D+00
 Coeff:      0.204D-05-0.168D-03-0.847D-04-0.911D-04 0.564D-03 0.133D-01
 Coeff:      0.421D-01 0.262D+00 0.682D+00
 Gap=     0.231 Goal=   None    Shift=    0.000
 RMSDP=2.94D-07 MaxDP=3.17D-05 DE=-2.96D-10 OVMax= 5.76D-07

 Cycle  10  Pass 1  IDiag  1:
 RMSU=  2.04D-07    CP:  9.96D-01  9.86D-01  5.52D-01  8.65D-01  7.33D-01
                    CP:  7.39D-01  7.41D-01  8.85D-01  8.57D-01
 E= -1131.55719801162     Delta-E=        0.000000000424 Rises=F Damp=F
 DIIS: error= 1.96D-08 at cycle  10 NSaved=  10.
 NSaved=10 IEnMin= 9 EnMin= -1131.55719801205     IErMin=10 ErrMin= 1.96D-08
 ErrMax= 1.96D-08  0.00D+00 EMaxC= 1.00D-01 BMatC= 5.38D-13 BMatP= 1.13D-11
 IDIUse=1 WtCom= 1.00D+00 WtEn= 0.00D+00
 Coeff-Com: -0.808D-07 0.779D-04-0.825D-04-0.110D-02-0.179D-02-0.297D-02
 Coeff-Com: -0.185D-02 0.563D-01 0.253D+00 0.698D+00
 Coeff:     -0.808D-07 0.779D-04-0.825D-04-0.110D-02-0.179D-02-0.297D-02
 Coeff:     -0.185D-02 0.563D-01 0.253D+00 0.698D+00
 Gap=     0.231 Goal=   None    Shift=    0.000
 RMSDP=1.00D-07 MaxDP=1.08D-05 DE= 4.24D-10 OVMax= 1.42D-07

 Cycle  11  Pass 1  IDiag  1:
 RMSU=  5.40D-08    CP:  9.96D-01  9.86D-01  5.52D-01  8.65D-01  7.33D-01
                    CP:  7.40D-01  7.44D-01  9.02D-01  8.96D-01  7.70D-01
 E= -1131.55719801192     Delta-E=       -0.000000000295 Rises=F Damp=F
 DIIS: error= 7.57D-09 at cycle  11 NSaved=  11.
 NSaved=11 IEnMin= 9 EnMin= -1131.55719801205     IErMin=11 ErrMin= 7.57D-09
 ErrMax= 7.57D-09  0.00D+00 EMaxC= 1.00D-01 BMatC= 6.86D-14 BMatP= 5.38D-13
 IDIUse=1 WtCom= 1.00D+00 WtEn= 0.00D+00
 Coeff-Com: -0.177D-06 0.484D-04-0.341D-04-0.517D-03-0.886D-03-0.226D-02
 Coeff-Com: -0.351D-02 0.952D-02 0.755D-01 0.335D+00 0.587D+00
 Coeff:     -0.177D-06 0.484D-04-0.341D-04-0.517D-03-0.886D-03-0.226D-02
 Coeff:     -0.351D-02 0.952D-02 0.755D-01 0.335D+00 0.587D+00
 Gap=     0.231 Goal=   None    Shift=    0.000
 RMSDP=2.21D-08 MaxDP=1.49D-06 DE=-2.95D-10 OVMax= 4.57D-08

 Cycle  12  Pass 1  IDiag  1:
 RMSU=  1.18D-08    CP:  9.96D-01  9.86D-01  5.52D-01  8.65D-01  7.33D-01
                    CP:  7.40D-01  7.44D-01  9.05D-01  8.88D-01  8.13D-01
                    CP:  7.82D-01
 E= -1131.55719801192     Delta-E=       -0.000000000001 Rises=F Damp=F
 DIIS: error= 1.70D-09 at cycle  12 NSaved=  12.
 NSaved=12 IEnMin= 9 EnMin= -1131.55719801205     IErMin=12 ErrMin= 1.70D-09
 ErrMax= 1.70D-09  0.00D+00 EMaxC= 1.00D-01 BMatC= 4.14D-15 BMatP= 6.86D-14
 IDIUse=1 WtCom= 1.00D+00 WtEn= 0.00D+00
 Coeff-Com: -0.688D-07 0.142D-04-0.750D-05-0.127D-03-0.229D-03-0.731D-03
 Coeff-Com: -0.138D-02-0.779D-03 0.105D-01 0.840D-01 0.250D+00 0.659D+00
 Coeff:     -0.688D-07 0.142D-04-0.750D-05-0.127D-03-0.229D-03-0.731D-03
 Coeff:     -0.138D-02-0.779D-03 0.105D-01 0.840D-01 0.250D+00 0.659D+00
 Gap=     0.231 Goal=   None    Shift=    0.000
 RMSDP=5.78D-09 MaxDP=4.69D-07 DE=-9.09D-13 OVMax= 1.14D-08

 SCF Done:  E(RB3LYP) =  -1131.55719801     A.U. after   12 cycles
            NFock= 12  Conv=0.58D-08     -V/T= 2.0059
 KE= 1.124916707863D+03 PE=-8.244302969295D+03 EE= 3.176557389735D+03
 Leave Link  502 at Mon Jul 28 18:55:19 2025, MaxMem=  1073741824 cpu:            1884.9 elap:             236.4
 (Enter /app/gaussian/g16/l701.exe)
 ... and contract with generalized density number  0.
 Compute integral first derivatives.
 Leave Link  701 at Mon Jul 28 18:55:19 2025, MaxMem=  1073741824 cpu:               1.9 elap:               0.3
 (Enter /app/gaussian/g16/l702.exe)
 L702 exits ... SP integral derivatives will be done elsewhere.
 Leave Link  702 at Mon Jul 28 18:55:20 2025, MaxMem=  1073741824 cpu:               0.2 elap:               0.0
 (Enter /app/gaussian/g16/l703.exe)
 Integral derivatives from FoFJK, PRISM(SPDF).
 Compute integral first derivatives, UseDBF=F ICtDFT=           0.
 Calling FoFJK, ICntrl=      2127 FMM=T ISym2X=0 I1Cent= 0 IOpClX= 0 NMat=1 NMatS=1 NMatT=0.
 FoFJK:  IHMeth= 1 ICntrl=    2127 DoSepK=F KAlg= 0 I1Cent=           0 FoldK=F
 IRaf=         0 NMat=       1 IRICut=       1 DoRegI=T DoRafI=F ISym2E= 0 IDoP0=0 IntGTp=1.
 FoFCou: FMM=T IPFlag=           0 FMFlag=      100000 FMFlg1=        2001
         NFxFlg=           0 DoJE=F BraDBF=F KetDBF=F FulRan=T
         wScrn=  0.000000 ICntrl=      2127 IOpCl=  0 I1Cent=           0 NGrid=           0
         NMat0=    1 NMatS0=      1 NMatT0=    0 NMatD0=    1 NMtDS0=    0 NMtDT0=    0
 Symmetry not used in FoFCou.
 FMM levels:  10  Number of levels for PrismC:   9
 Leave Link  703 at Mon Jul 28 18:56:11 2025, MaxMem=  1073741824 cpu:             407.0 elap:              51.0
 (Enter /app/gaussian/g16/l716.exe)
 Dipole        =-5.83836755D-01 4.43920532D-01-3.22050006D-01
 ***** Axes restored to original set *****
 -------------------------------------------------------------------
 Center     Atomic                   Forces (Hartrees/Bohr)
 Number     Number              X              Y              Z
 -------------------------------------------------------------------
      1        6          -0.000017531    0.000323533   -0.000237614
      2        6          -0.000027613   -0.000530634    0.000189898
      3        6           0.000087352   -0.000030568   -0.000242127
      4        6           0.000248621   -0.000111084   -0.000332736
      5        6          -0.000226125   -0.000105418    0.000271292
      6        6          -0.000191179   -0.000337631   -0.000063940
      7        6          -0.000207298    0.000037468   -0.000327432
      8        6          -0.000062826    0.000461662    0.000301454
      9        6           0.000230675   -0.000027707   -0.000272614
     10        6          -0.000026457    0.000005995   -0.000024552
     11        6          -0.000009897    0.000277985    0.000236084
     12        6           0.000332369    0.000147415    0.000076505
     13        8          -0.000833523   -0.000195452    0.000004603
     14        6           0.000530483   -0.000077967   -0.000303964
     15        6          -0.000062706   -0.000046044   -0.000041715
     16        6           0.000394066    0.000042994   -0.000082739
     17        6           0.000164102   -0.000013659   -0.000169534
     18        6           0.000116499    0.000315416    0.000241531
     19        6          -0.000370565   -0.000325990    0.000331534
     20        6          -0.000107684    0.000209641   -0.000346313
     21        6           0.000010026   -0.000161192    0.000016559
     22        6           0.000161359    0.000113412   -0.000081506
     23        6          -0.000187369   -0.000000655    0.000125390
     24        6           0.000042983   -0.000114428   -0.000034297
     25        6           0.000008488    0.000045798   -0.000076507
     26        6           0.000040837    0.000102714    0.000063932
     27        6           0.000034440    0.000094261    0.000021236
     28        6          -0.000120544   -0.000244826   -0.000491136
     29        1          -0.000012647    0.000048838   -0.000046909
     30        1           0.000019811    0.000035325    0.000040323
     31        1           0.000022532   -0.000041524   -0.000023175
     32        1          -0.000019831   -0.000147441   -0.000027463
     33        1          -0.000084334    0.000071313   -0.000194889
     34        1           0.000220282   -0.000030433    0.000178842
     35        1          -0.000029707   -0.000066511    0.000077603
     36        1          -0.000031823   -0.000017514    0.000068156
     37        1          -0.000182927   -0.000142733    0.000004290
     38        1           0.000072750   -0.000001759    0.000096336
     39        1           0.000062054    0.000033650    0.000115692
     40        1          -0.000125461   -0.000019480    0.000108949
     41        1          -0.000049075    0.000015392    0.000116583
     42        1           0.000023101   -0.000078861   -0.000146436
     43        1           0.000022755    0.000025897    0.000278227
     44        1          -0.000130510   -0.000101446   -0.000086271
     45        1          -0.000101224   -0.000056089    0.000043164
     46        1          -0.000115639    0.000055452   -0.000034692
     47        1           0.000029536   -0.000002135   -0.000052008
     48        1           0.000008502    0.000060611    0.000059834
     49        1           0.000076468    0.000044350    0.000040569
     50        1           0.000106179    0.000092135   -0.000098657
     51        1           0.000049767    0.000052621    0.000109242
     52        1           0.000317733    0.000210843    0.000196702
     53        1           0.000022017   -0.000030267   -0.000058688
     54        1          -0.000035166   -0.000006382    0.000020524
     55        1          -0.000088821   -0.000161895   -0.000103641
     56        1          -0.000032671    0.000059955    0.000036229
     57        1           0.000064761   -0.000044222    0.000123365
     58        1          -0.000019208    0.000095724   -0.000110527
     59        1           0.000204581    0.000352521   -0.000029630
     60        1          -0.000061215   -0.000081911    0.000098601
     61        1          -0.000021678    0.000089753    0.000039787
     62        1           0.000020384    0.000124131   -0.000007142
     63        1          -0.000108649   -0.000135128   -0.000004284
     64        1           0.000098815    0.000092355    0.000006669
     65        1           0.000164197    0.000052617    0.000121129
     66        1          -0.000033914    0.000059648   -0.000052561
     67        1           0.000058173   -0.000061159   -0.000047850
     68        1          -0.000088800   -0.000070002   -0.000052158
     69        1          -0.000090301   -0.000067057    0.000008620
     70        1           0.000041439   -0.000097277    0.000048845
     71        1          -0.000014618    0.000006266    0.000084968
     72        1          -0.000269679   -0.000075855    0.000129564
     73        1           0.000051445   -0.000042864    0.000038028
     74        1           0.000039631    0.000045509    0.000134851
 -------------------------------------------------------------------
 Cartesian Forces:  Max     0.000833523 RMS     0.000160907
 Leave Link  716 at Mon Jul 28 18:56:11 2025, MaxMem=  1073741824 cpu:               0.2 elap:               0.0
 (Enter /app/gaussian/g16/l103.exe)

 GradGradGradGradGradGradGradGradGradGradGradGradGradGradGradGradGradGrad
 Berny optimization.
 Using GEDIIS/GDIIS optimizer.
 FormGI is forming the generalized inverse of G from B-inverse, IUseBI=4.
 Internal  Forces:  Max     0.001340672 RMS     0.000187328
 Search for a local minimum.
 Step number   4 out of a maximum of  444
 All quantities printed in internal units (Hartrees-Bohrs-Radians)
 RMS Force = .18733D-03 SwitMx=.10000D-02 MixMth= 2
 Mixed Optimization -- En-DIIS/RFO-DIIS
 Swapping is turned off.
 Update second derivatives using D2CorX and points    1    2    3    4
 DE= -1.89D-05 DEPred=-9.74D-05 R= 1.94D-01
 Trust test= 1.94D-01 RLast= 1.22D-01 DXMaxT set to 8.11D-01
 ITU=  0  1  1  0
     Eigenvalues ---    0.00225   0.00230   0.00232   0.00236   0.00255
     Eigenvalues ---    0.00307   0.00325   0.00342   0.00351   0.00354
     Eigenvalues ---    0.00380   0.00413   0.00468   0.00500   0.00561
     Eigenvalues ---    0.00596   0.00665   0.00984   0.01166   0.01344
     Eigenvalues ---    0.01397   0.01633   0.01689   0.02199   0.02319
     Eigenvalues ---    0.02405   0.02627   0.03056   0.03117   0.03129
     Eigenvalues ---    0.03188   0.03227   0.03332   0.03427   0.03522
     Eigenvalues ---    0.03618   0.03696   0.03833   0.03872   0.04167
     Eigenvalues ---    0.04322   0.04406   0.04445   0.04586   0.04617
     Eigenvalues ---    0.04650   0.04677   0.04694   0.04708   0.04724
     Eigenvalues ---    0.04738   0.04779   0.04815   0.04928   0.04932
     Eigenvalues ---    0.04976   0.05089   0.05166   0.05267   0.05299
     Eigenvalues ---    0.05373   0.05418   0.05426   0.05432   0.05433
     Eigenvalues ---    0.05439   0.05471   0.05505   0.05513   0.05550
     Eigenvalues ---    0.05576   0.05591   0.05641   0.05720   0.05828
     Eigenvalues ---    0.05997   0.06150   0.06596   0.06961   0.07083
     Eigenvalues ---    0.07262   0.07451   0.07581   0.07745   0.08064
     Eigenvalues ---    0.08105   0.08195   0.08583   0.08656   0.08843
     Eigenvalues ---    0.08907   0.08991   0.09118   0.09307   0.09531
     Eigenvalues ---    0.10185   0.10361   0.10754   0.11363   0.12293
     Eigenvalues ---    0.12512   0.12619   0.12675   0.12802   0.13680
     Eigenvalues ---    0.13873   0.14487   0.15000   0.15355   0.15710
     Eigenvalues ---    0.16000   0.16000   0.16000   0.16000   0.16000
     Eigenvalues ---    0.16000   0.16000   0.16000   0.16000   0.16000
     Eigenvalues ---    0.16000   0.16000   0.16000   0.16013   0.16024
     Eigenvalues ---    0.16268   0.16580   0.16696   0.16891   0.16983
     Eigenvalues ---    0.17756   0.18152   0.19094   0.19829   0.19913
     Eigenvalues ---    0.21500   0.21858   0.21914   0.22177   0.22379
     Eigenvalues ---    0.22993   0.24683   0.25551   0.25929   0.26234
     Eigenvalues ---    0.26796   0.26970   0.26980   0.27247   0.27681
     Eigenvalues ---    0.27819   0.27930   0.28222   0.28427   0.28436
     Eigenvalues ---    0.28629   0.28769   0.28776   0.28873   0.28986
     Eigenvalues ---    0.29223   0.29336   0.29379   0.29433   0.29689
     Eigenvalues ---    0.30034   0.31098   0.31642   0.33172   0.33444
     Eigenvalues ---    0.33494   0.33698   0.33833   0.33891   0.33902
     Eigenvalues ---    0.33930   0.33955   0.33993   0.34004   0.34015
     Eigenvalues ---    0.34020   0.34023   0.34029   0.34046   0.34074
     Eigenvalues ---    0.34116   0.34126   0.34131   0.34136   0.34139
     Eigenvalues ---    0.34146   0.34156   0.34165   0.34195   0.34206
     Eigenvalues ---    0.34220   0.34229   0.34230   0.34238   0.34249
     Eigenvalues ---    0.34258   0.34260   0.34272   0.34287   0.34293
     Eigenvalues ---    0.34310   0.34346   0.34402   0.34427   0.34458
     Eigenvalues ---    0.34578   0.35001   0.35182   0.40884   0.52886
     Eigenvalues ---    0.53591
 En-DIIS/RFO-DIIS/Sim-DIIS IScMMF=       -3 using points:     4    3    2
 RFO step:  Lambda=-1.27968690D-04.
 NNeg= 0 NGDIIS= 3 SimSw=  2.50D-01 Rises=F DC= -1.89D-05 SmlDif=  1.00D-05
 NRisDI= 0 DoIntr=F SqrtH=F CThrHd= 10.0 CDAdj=  3.0
 RMS Error=  0.5655942396D-02 NUsed= 3 OKEnD=T EnDIS=F
 InvSVX:  RCond= 1.88D-03 Info=           0 Equed=N FErr=  5.02D-15 BErr=  0.00D+00
 DidBck=T Rises=F RFO-DIIS coefs:    0.48409    0.72064   -0.20473
 Iteration  1 RMS(Cart)=  0.03029929 RMS(Int)=  0.00011131
 Iteration  2 RMS(Cart)=  0.00035296 RMS(Int)=  0.00000569
 Iteration  3 RMS(Cart)=  0.00000002 RMS(Int)=  0.00000569
 ITry= 1 IFail=0 DXMaxC= 1.56D-01 DCOld= 1.00D+10 DXMaxT= 8.11D-01 DXLimC= 3.00D+00 Rises=F
 Variable       Old X    -DE/DX   Delta X   Delta X   Delta X     New X
                                 (Linear)    (Quad)   (Total)
    R1        2.92937  -0.00039   0.00027  -0.00079  -0.00052   2.92885
    R2        2.07198  -0.00000   0.00017  -0.00021  -0.00004   2.07193
    R3        2.06716  -0.00001   0.00014  -0.00019  -0.00005   2.06710
    R4        2.06987   0.00005   0.00020  -0.00021  -0.00001   2.06986
    R5        2.95217   0.00008  -0.00034   0.00013  -0.00020   2.95197
    R6        2.92520  -0.00027  -0.00130   0.00100  -0.00029   2.92490
    R7        2.97803  -0.00051  -0.00175   0.00102  -0.00073   2.97730
    R8        2.90610   0.00019   0.00064  -0.00047   0.00018   2.90628
    R9        2.91204  -0.00021   0.00093  -0.00109  -0.00016   2.91188
   R10        2.09075  -0.00006   0.00007  -0.00010  -0.00003   2.09072
   R11        2.94142   0.00024  -0.00015   0.00075   0.00060   2.94202
   R12        2.91639  -0.00017   0.00018  -0.00031  -0.00012   2.91627
   R13        2.08029  -0.00021   0.00014  -0.00038  -0.00024   2.08006
   R14        2.97465   0.00076   0.00223  -0.00159   0.00064   2.97528
   R15        2.93028   0.00035   0.00156  -0.00142   0.00013   2.93041
   R16        2.08856  -0.00020   0.00013  -0.00039  -0.00026   2.08830
   R17        2.94344  -0.00011   0.00028  -0.00042  -0.00015   2.94330
   R18        2.91271  -0.00044  -0.00056  -0.00008  -0.00065   2.91206
   R19        2.96061   0.00005   0.00036  -0.00026   0.00009   2.96070
   R20        2.06742   0.00007   0.00033  -0.00035  -0.00003   2.06739
   R21        2.06990   0.00000   0.00015  -0.00019  -0.00004   2.06986
   R22        2.07048  -0.00014  -0.00031   0.00019  -0.00013   2.07036
   R23        2.54228   0.00034  -0.00056   0.00090   0.00034   2.54262
   R24        2.87437   0.00025  -0.00135   0.00194   0.00059   2.87496
   R25        2.84505  -0.00002   0.00045  -0.00064  -0.00019   2.84486
   R26        2.06212  -0.00008   0.00012  -0.00023  -0.00011   2.06201
   R27        2.07797  -0.00000   0.00008  -0.00011  -0.00002   2.07795
   R28        2.08746  -0.00013   0.00013  -0.00028  -0.00015   2.08730
   R29        2.90449  -0.00002   0.00004  -0.00008  -0.00004   2.90445
   R30        2.07643  -0.00007   0.00045  -0.00071  -0.00025   2.07618
   R31        2.07943  -0.00011   0.00070  -0.00101  -0.00031   2.07912
   R32        2.77465   0.00097  -0.00254   0.00426   0.00173   2.77637
   R33        2.87975  -0.00012  -0.00048   0.00060   0.00013   2.87987
   R34        2.08214  -0.00025   0.00091  -0.00146  -0.00055   2.08159
   R35        1.84887   0.00017  -0.00035   0.00056   0.00021   1.84908
   R36        2.91142   0.00008  -0.00079   0.00111   0.00033   2.91175
   R37        2.07217  -0.00000   0.00034  -0.00048  -0.00014   2.07204
   R38        2.07424  -0.00002   0.00048  -0.00064  -0.00016   2.07408
   R39        2.07236  -0.00003  -0.00019   0.00019  -0.00000   2.07236
   R40        2.07979  -0.00003   0.00015  -0.00023  -0.00008   2.07970
   R41        2.92660  -0.00008  -0.00070   0.00051  -0.00019   2.92641
   R42        2.07399  -0.00000   0.00010  -0.00013  -0.00004   2.07395
   R43        2.07217  -0.00012  -0.00040   0.00035  -0.00005   2.07212
   R44        2.08122  -0.00007   0.00022  -0.00035  -0.00013   2.08109
   R45        2.07012   0.00039   0.00054  -0.00023   0.00030   2.07043
   R46        2.94509  -0.00009   0.00064  -0.00055   0.00009   2.94517
   R47        2.07598  -0.00002   0.00021  -0.00028  -0.00007   2.07592
   R48        2.07071  -0.00001   0.00016  -0.00022  -0.00007   2.07064
   R49        2.97381   0.00016   0.00101  -0.00112  -0.00011   2.97370
   R50        2.07488  -0.00004  -0.00004   0.00001  -0.00003   2.07485
   R51        2.07018  -0.00004  -0.00005  -0.00001  -0.00006   2.07012
   R52        2.94156  -0.00001   0.00012  -0.00022  -0.00009   2.94147
   R53        2.08685  -0.00013   0.00029  -0.00047  -0.00018   2.08666
   R54        2.94109   0.00009  -0.00013   0.00038   0.00025   2.94134
   R55        2.91641  -0.00031  -0.00027  -0.00010  -0.00037   2.91604
   R56        2.08104  -0.00015   0.00018  -0.00035  -0.00017   2.08087
   R57        2.92277   0.00011  -0.00034   0.00052   0.00019   2.92296
   R58        2.07228  -0.00028  -0.00004  -0.00032  -0.00035   2.07193
   R59        2.08299  -0.00011   0.00030  -0.00050  -0.00020   2.08280
   R60        2.91963   0.00016  -0.00072   0.00107   0.00035   2.91997
   R61        2.07729  -0.00004   0.00035  -0.00050  -0.00015   2.07714
   R62        2.07558   0.00011   0.00036  -0.00034   0.00002   2.07560
   R63        2.92772  -0.00007  -0.00045   0.00052   0.00006   2.92779
   R64        2.08262  -0.00015   0.00029  -0.00052  -0.00023   2.08239
   R65        2.07894  -0.00005   0.00025  -0.00038  -0.00013   2.07881
   R66        2.91441   0.00004  -0.00009   0.00015   0.00006   2.91447
   R67        2.91545   0.00016  -0.00007   0.00022   0.00015   2.91560
   R68        2.08179  -0.00020   0.00029  -0.00055  -0.00026   2.08153
   R69        2.07374  -0.00006   0.00023  -0.00035  -0.00012   2.07361
   R70        2.07099   0.00000   0.00014  -0.00019  -0.00005   2.07093
   R71        2.07729  -0.00012   0.00017  -0.00032  -0.00015   2.07714
   R72        2.07676  -0.00010   0.00018  -0.00031  -0.00013   2.07663
   R73        2.07383  -0.00001   0.00012  -0.00018  -0.00005   2.07378
   R74        2.07349  -0.00002   0.00013  -0.00020  -0.00007   2.07343
   R75        2.06550   0.00029   0.00067  -0.00053   0.00014   2.06564
   R76        2.07645  -0.00007  -0.00003  -0.00000  -0.00003   2.07642
   R77        2.06967   0.00011   0.00038  -0.00038   0.00000   2.06967
    A1        1.92952  -0.00011  -0.00041   0.00020  -0.00021   1.92931
    A2        1.95713   0.00006   0.00036  -0.00032   0.00003   1.95717
    A3        1.94949  -0.00001   0.00030  -0.00044  -0.00015   1.94934
    A4        1.87403   0.00000  -0.00020   0.00024   0.00004   1.87407
    A5        1.87572   0.00005  -0.00010   0.00024   0.00015   1.87586
    A6        1.87410   0.00000   0.00003   0.00013   0.00016   1.87426
    A7        1.96148   0.00014   0.00029   0.00053   0.00082   1.96230
    A8        1.93586  -0.00006  -0.00000  -0.00054  -0.00054   1.93533
    A9        1.92381   0.00005   0.00018  -0.00053  -0.00035   1.92346
   A10        1.85375   0.00008   0.00179  -0.00067   0.00112   1.85487
   A11        1.74558   0.00012  -0.00079   0.00096   0.00017   1.74575
   A12        2.03484  -0.00030  -0.00141   0.00044  -0.00099   2.03386
   A13        2.01116  -0.00002   0.00122  -0.00134  -0.00011   2.01104
   A14        1.82239  -0.00010  -0.00106  -0.00003  -0.00109   1.82130
   A15        1.83382   0.00003  -0.00129   0.00193   0.00063   1.83446
   A16        2.07153   0.00017  -0.00045   0.00135   0.00088   2.07241
   A17        1.84698  -0.00005   0.00000   0.00005   0.00006   1.84704
   A18        1.85981  -0.00005   0.00155  -0.00191  -0.00036   1.85945
   A19        1.91337   0.00006   0.00077  -0.00041   0.00036   1.91372
   A20        1.93381   0.00005  -0.00162   0.00213   0.00051   1.93432
   A21        1.90753   0.00001   0.00063  -0.00074  -0.00010   1.90743
   A22        1.91572  -0.00003  -0.00016   0.00035   0.00018   1.91590
   A23        1.90674  -0.00006  -0.00036  -0.00008  -0.00044   1.90630
   A24        1.88630  -0.00002   0.00076  -0.00129  -0.00053   1.88577
   A25        1.96334  -0.00001  -0.00056   0.00159   0.00104   1.96439
   A26        1.95450  -0.00020   0.00120  -0.00130  -0.00010   1.95440
   A27        1.84467   0.00001  -0.00205   0.00124  -0.00080   1.84387
   A28        1.97564   0.00038   0.00353  -0.00281   0.00072   1.97636
   A29        1.84548  -0.00007  -0.00172   0.00164  -0.00008   1.84540
   A30        1.86900  -0.00013  -0.00109   0.00007  -0.00103   1.86796
   A31        1.94747   0.00029   0.00368  -0.00296   0.00072   1.94819
   A32        1.91924   0.00001  -0.00143   0.00204   0.00060   1.91985
   A33        1.89317  -0.00004   0.00150  -0.00140   0.00011   1.89328
   A34        1.90138  -0.00024  -0.00313   0.00266  -0.00047   1.90091
   A35        1.91119  -0.00008  -0.00003  -0.00022  -0.00024   1.91095
   A36        1.89055   0.00005  -0.00068  -0.00008  -0.00077   1.88978
   A37        1.94224   0.00004  -0.00113   0.00130   0.00016   1.94240
   A38        1.93679   0.00008   0.00024  -0.00011   0.00013   1.93692
   A39        1.94088   0.00013   0.00106  -0.00105   0.00002   1.94089
   A40        1.87516  -0.00009  -0.00015  -0.00005  -0.00021   1.87495
   A41        1.87345  -0.00012  -0.00057   0.00039  -0.00018   1.87327
   A42        1.89261  -0.00005   0.00054  -0.00048   0.00006   1.89267
   A43        2.14730  -0.00005   0.00052  -0.00052   0.00001   2.14732
   A44        2.03333  -0.00006  -0.00063   0.00029  -0.00035   2.03298
   A45        2.10255   0.00011   0.00007   0.00023   0.00034   2.10289
   A46        2.18368   0.00012   0.00004   0.00025   0.00029   2.18397
   A47        2.07131  -0.00003  -0.00012   0.00001  -0.00011   2.07120
   A48        2.02819  -0.00009   0.00008  -0.00026  -0.00018   2.02801
   A49        1.97280   0.00009   0.00041  -0.00012   0.00029   1.97309
   A50        1.91905  -0.00013   0.00052  -0.00113  -0.00061   1.91844
   A51        1.90485   0.00003  -0.00026   0.00038   0.00012   1.90498
   A52        1.91132   0.00006   0.00045  -0.00046  -0.00001   1.91131
   A53        1.91102  -0.00012  -0.00078   0.00075  -0.00004   1.91099
   A54        1.84007   0.00006  -0.00041   0.00064   0.00024   1.84031
   A55        1.95523   0.00018  -0.00107   0.00137   0.00029   1.95552
   A56        1.91053  -0.00003  -0.00014   0.00023   0.00010   1.91063
   A57        1.93535  -0.00005  -0.00026   0.00036   0.00007   1.93542
   A58        1.92618  -0.00009   0.00055  -0.00069  -0.00015   1.92603
   A59        1.86757   0.00003   0.00046  -0.00041   0.00003   1.86760
   A60        1.86667  -0.00004   0.00060  -0.00098  -0.00038   1.86629
   A61        1.94398   0.00001  -0.00105   0.00154   0.00046   1.94444
   A62        1.93072  -0.00024   0.00041  -0.00064  -0.00029   1.93043
   A63        1.91255   0.00008   0.00080  -0.00102  -0.00023   1.91231
   A64        1.85986   0.00031  -0.00324   0.00485   0.00160   1.86146
   A65        1.89971  -0.00009   0.00153  -0.00219  -0.00063   1.89908
   A66        1.91617  -0.00007   0.00162  -0.00250  -0.00090   1.91527
   A67        1.93944   0.00013  -0.00120   0.00149   0.00029   1.93973
   A68        1.93211   0.00022  -0.00184   0.00275   0.00090   1.93301
   A69        1.91101  -0.00010   0.00059  -0.00094  -0.00035   1.91066
   A70        1.89271  -0.00011   0.00164  -0.00238  -0.00075   1.89195
   A71        1.92162   0.00003  -0.00016   0.00053   0.00037   1.92198
   A72        1.94043  -0.00004  -0.00021   0.00028   0.00007   1.94050
   A73        1.86444  -0.00002   0.00012  -0.00043  -0.00031   1.86414
   A74        2.00210  -0.00009   0.00065  -0.00099  -0.00035   2.00175
   A75        1.90677   0.00003   0.00030  -0.00046  -0.00016   1.90661
   A76        1.88584   0.00003   0.00064  -0.00064   0.00000   1.88584
   A77        1.90308  -0.00000  -0.00187   0.00234   0.00048   1.90355
   A78        1.89781   0.00008  -0.00005   0.00029   0.00024   1.89806
   A79        1.86327  -0.00005   0.00035  -0.00056  -0.00021   1.86305
   A80        1.99249   0.00017  -0.00056   0.00057   0.00000   1.99249
   A81        1.91138   0.00000   0.00047  -0.00014   0.00033   1.91171
   A82        1.91543   0.00003   0.00171  -0.00191  -0.00020   1.91523
   A83        1.89199  -0.00012  -0.00090   0.00091   0.00002   1.89200
   A84        1.89423  -0.00012  -0.00155   0.00154  -0.00001   1.89422
   A85        1.85303   0.00002   0.00089  -0.00105  -0.00015   1.85288
   A86        1.95127  -0.00006  -0.00238   0.00197  -0.00042   1.95085
   A87        1.89416   0.00008   0.00078  -0.00056   0.00021   1.89437
   A88        1.94949  -0.00014  -0.00072   0.00041  -0.00031   1.94919
   A89        1.91118   0.00005   0.00058  -0.00022   0.00036   1.91153
   A90        1.89259   0.00012   0.00113  -0.00074   0.00039   1.89297
   A91        1.86291  -0.00005   0.00079  -0.00100  -0.00021   1.86270
   A92        1.81067   0.00006  -0.00048   0.00086   0.00037   1.81105
   A93        1.93079   0.00001  -0.00010   0.00016   0.00006   1.93085
   A94        1.96134  -0.00004   0.00070  -0.00098  -0.00027   1.96106
   A95        1.94018  -0.00008  -0.00025   0.00017  -0.00008   1.94010
   A96        1.95584   0.00005   0.00015  -0.00008   0.00006   1.95590
   A97        1.86657  -0.00001  -0.00002  -0.00011  -0.00013   1.86644
   A98        1.87237  -0.00006  -0.00081   0.00047  -0.00033   1.87204
   A99        1.93441  -0.00023   0.00051  -0.00074  -0.00024   1.93418
   A100       1.94012   0.00018  -0.00077   0.00078   0.00001   1.94014
   A101       1.92064   0.00021   0.00081  -0.00005   0.00076   1.92140
   A102       1.93633  -0.00009   0.00017  -0.00051  -0.00033   1.93600
   A103       1.86080  -0.00001   0.00012   0.00002   0.00014   1.86095
   A104       1.80370  -0.00006  -0.00093  -0.00002  -0.00095   1.80275
   A105       2.08782  -0.00103  -0.00314   0.00057  -0.00257   2.08525
   A106       1.85294   0.00025  -0.00052   0.00010  -0.00043   1.85251
   A107       1.95769   0.00099   0.00367  -0.00056   0.00311   1.96080
   A108       1.88707  -0.00006   0.00123  -0.00013   0.00109   1.88816
   A109       1.86497  -0.00005  -0.00011   0.00002  -0.00009   1.86487
   A110       1.91142   0.00134   0.00244   0.00048   0.00292   1.91434
   A111       1.97605  -0.00104  -0.00278   0.00027  -0.00251   1.97354
   A112       1.87509  -0.00004   0.00077  -0.00046   0.00032   1.87541
   A113       1.92827  -0.00040  -0.00116   0.00022  -0.00095   1.92733
   A114       1.88218  -0.00015   0.00138  -0.00037   0.00102   1.88320
   A115       1.88765   0.00033  -0.00046  -0.00020  -0.00066   1.88699
   A116       2.03444  -0.00038  -0.00169   0.00141  -0.00028   2.03416
   A117       1.90195   0.00037   0.00163  -0.00037   0.00126   1.90320
   A118       1.88670  -0.00001  -0.00013  -0.00056  -0.00069   1.88601
   A119       1.89220   0.00001   0.00070  -0.00046   0.00023   1.89244
   A120       1.88931   0.00011  -0.00115   0.00088  -0.00027   1.88903
   A121       1.85081  -0.00009   0.00085  -0.00112  -0.00027   1.85054
   A122       2.01845   0.00033  -0.00052   0.00121   0.00069   2.01915
   A123       1.88339  -0.00010   0.00049  -0.00074  -0.00025   1.88313
   A124       1.91665  -0.00009  -0.00040   0.00043   0.00003   1.91667
   A125       1.90763  -0.00008  -0.00038   0.00048   0.00010   1.90773
   A126       1.88957  -0.00009  -0.00012   0.00001  -0.00011   1.88945
   A127       1.83996   0.00001   0.00109  -0.00166  -0.00057   1.83938
   A128       2.02869   0.00023  -0.00123   0.00200   0.00077   2.02946
   A129       1.89153  -0.00002  -0.00042   0.00047   0.00005   1.89158
   A130       1.90715  -0.00008   0.00039  -0.00042  -0.00004   1.90711
   A131       1.88742  -0.00014   0.00002  -0.00045  -0.00043   1.88700
   A132       1.89116  -0.00001   0.00072  -0.00071   0.00001   1.89117
   A133       1.84975  -0.00000   0.00069  -0.00117  -0.00048   1.84927
   A134       1.96036  -0.00001  -0.00052   0.00073   0.00021   1.96057
   A135       1.92265  -0.00003  -0.00014   0.00016   0.00002   1.92267
   A136       1.88929   0.00001   0.00000  -0.00009  -0.00009   1.88921
   A137       1.92762   0.00006  -0.00005   0.00024   0.00019   1.92781
   A138       1.88376  -0.00001   0.00018  -0.00027  -0.00009   1.88367
   A139       1.87745  -0.00003   0.00058  -0.00086  -0.00028   1.87717
   A140       1.93387  -0.00000   0.00020  -0.00031  -0.00011   1.93376
   A141       1.95536   0.00011  -0.00049   0.00083   0.00034   1.95570
   A142       1.92926   0.00002   0.00007  -0.00002   0.00004   1.92930
   A143       1.87925  -0.00009   0.00034  -0.00063  -0.00029   1.87896
   A144       1.88066  -0.00001   0.00003  -0.00006  -0.00002   1.88063
   A145       1.88273  -0.00005  -0.00013   0.00016   0.00003   1.88276
   A146       1.93104   0.00005   0.00007   0.00002   0.00008   1.93112
   A147       1.94156   0.00012  -0.00038   0.00073   0.00035   1.94190
   A148       1.94029   0.00007  -0.00027   0.00045   0.00018   1.94047
   A149       1.88164  -0.00007   0.00017  -0.00033  -0.00016   1.88148
   A150       1.88155  -0.00006   0.00020  -0.00037  -0.00017   1.88138
   A151       1.88542  -0.00012   0.00025  -0.00056  -0.00031   1.88511
   A152       1.95491  -0.00014   0.00022  -0.00072  -0.00049   1.95442
   A153       1.93328  -0.00000  -0.00047   0.00051   0.00003   1.93331
   A154       1.94039   0.00011  -0.00035   0.00069   0.00034   1.94073
   A155       1.88266   0.00004  -0.00037   0.00036  -0.00000   1.88266
   A156       1.86938   0.00001   0.00114  -0.00118  -0.00004   1.86935
   A157       1.87996  -0.00001  -0.00013   0.00031   0.00018   1.88013
    D1       -3.09250   0.00003  -0.00727   0.00646  -0.00081  -3.09331
    D2       -1.02030   0.00019  -0.00481   0.00560   0.00079  -1.01951
    D3        1.26000  -0.00023  -0.00658   0.00531  -0.00126   1.25873
    D4       -1.00179   0.00000  -0.00757   0.00669  -0.00088  -1.00268
    D5        1.07041   0.00016  -0.00512   0.00583   0.00071   1.07112
    D6       -2.93248  -0.00025  -0.00688   0.00554  -0.00134  -2.93382
    D7        1.10290   0.00004  -0.00707   0.00631  -0.00076   1.10214
    D8       -3.10809   0.00020  -0.00461   0.00545   0.00084  -3.10725
    D9       -0.82779  -0.00022  -0.00638   0.00517  -0.00121  -0.82901
   D10        1.07122   0.00001   0.00344  -0.00167   0.00176   1.07299
   D11       -1.23253  -0.00012   0.00405  -0.00244   0.00160  -1.23093
   D12        3.09658  -0.00004   0.00325  -0.00106   0.00219   3.09876
   D13       -1.04858  -0.00005   0.00208  -0.00088   0.00120  -1.04738
   D14        2.93085  -0.00019   0.00269  -0.00165   0.00104   2.93189
   D15        0.97677  -0.00010   0.00189  -0.00027   0.00162   0.97839
   D16        3.11149   0.00020   0.00332  -0.00154   0.00178   3.11328
   D17        0.80774   0.00007   0.00393  -0.00231   0.00162   0.80936
   D18       -1.14634   0.00015   0.00313  -0.00093   0.00220  -1.14413
   D19       -1.15413  -0.00009   0.00147  -0.00301  -0.00154  -1.15566
   D20        3.01930  -0.00018   0.00174  -0.00360  -0.00186   3.01744
   D21        0.97026  -0.00009   0.00071  -0.00227  -0.00155   0.96870
   D22        0.98200   0.00010   0.00297  -0.00310  -0.00014   0.98186
   D23       -1.12776   0.00002   0.00323  -0.00369  -0.00046  -1.12822
   D24        3.10639   0.00011   0.00221  -0.00236  -0.00016   3.10623
   D25        2.90828   0.00015   0.00244  -0.00214   0.00030   2.90858
   D26        0.79851   0.00006   0.00271  -0.00273  -0.00002   0.79849
   D27       -1.25053   0.00015   0.00168  -0.00140   0.00028  -1.25024
   D28        1.38518   0.00016  -0.00526   0.00325  -0.00200   1.38318
   D29       -0.80554  -0.00040  -0.00719   0.00363  -0.00356  -0.80911
   D30       -2.91397   0.00016  -0.00448   0.00313  -0.00135  -2.91532
   D31       -0.68307  -0.00009  -0.00525   0.00237  -0.00288  -0.68595
   D32       -2.87380  -0.00065  -0.00719   0.00274  -0.00444  -2.87824
   D33        1.30096  -0.00009  -0.00448   0.00225  -0.00223   1.29873
   D34       -2.67130  -0.00014  -0.00630   0.00239  -0.00391  -2.67522
   D35        1.42115  -0.00070  -0.00823   0.00276  -0.00548   1.41568
   D36       -0.68727  -0.00014  -0.00553   0.00227  -0.00326  -0.69054
   D37        0.99490  -0.00008  -0.00715   0.00558  -0.00157   0.99334
   D38        3.11194  -0.00005  -0.00791   0.00713  -0.00078   3.11116
   D39       -1.09449  -0.00004  -0.00757   0.00638  -0.00119  -1.09568
   D40       -3.10904  -0.00008  -0.00796   0.00550  -0.00246  -3.11150
   D41       -0.99200  -0.00005  -0.00872   0.00705  -0.00167  -0.99367
   D42        1.08475  -0.00005  -0.00838   0.00630  -0.00208   1.08267
   D43       -1.02294  -0.00007  -0.00622   0.00390  -0.00232  -1.02526
   D44        1.09410  -0.00004  -0.00698   0.00545  -0.00153   1.09256
   D45       -3.11233  -0.00004  -0.00664   0.00470  -0.00194  -3.11427
   D46       -0.60532   0.00009  -0.00073   0.00111   0.00037  -0.60495
   D47        1.47665   0.00004  -0.00135   0.00187   0.00051   1.47717
   D48       -2.72162   0.00001  -0.00098   0.00119   0.00020  -2.72142
   D49       -2.87372   0.00008  -0.00107   0.00192   0.00084  -2.87288
   D50       -0.79175   0.00003  -0.00169   0.00268   0.00099  -0.79076
   D51        1.29316  -0.00000  -0.00132   0.00200   0.00067   1.29384
   D52        1.32999   0.00007  -0.00201   0.00250   0.00048   1.33047
   D53       -2.87122   0.00002  -0.00263   0.00326   0.00063  -2.87059
   D54       -0.78631  -0.00001  -0.00226   0.00258   0.00031  -0.78599
   D55       -3.10271  -0.00014  -0.00075  -0.00080  -0.00155  -3.10425
   D56       -0.85436   0.00020   0.00468  -0.00443   0.00025  -0.85411
   D57        1.17485  -0.00005   0.00278  -0.00428  -0.00151   1.17334
   D58        1.05258  -0.00021   0.00088  -0.00340  -0.00252   1.05006
   D59       -2.98226   0.00013   0.00631  -0.00703  -0.00073  -2.98299
   D60       -0.95305  -0.00013   0.00441  -0.00689  -0.00248  -0.95553
   D61       -1.01283  -0.00013   0.00027  -0.00200  -0.00172  -1.01455
   D62        1.23552   0.00021   0.00570  -0.00563   0.00007   1.23559
   D63       -3.01846  -0.00005   0.00380  -0.00548  -0.00168  -3.02014
   D64       -2.85522   0.00003   0.00232  -0.00281  -0.00049  -2.85571
   D65        1.28621  -0.00002   0.00107  -0.00130  -0.00023   1.28597
   D66       -0.72419  -0.00004   0.00141  -0.00166  -0.00025  -0.72445
   D67       -0.73957   0.00011   0.00210  -0.00171   0.00040  -0.73917
   D68       -2.88133   0.00006   0.00086  -0.00020   0.00066  -2.88067
   D69        1.39145   0.00004   0.00120  -0.00056   0.00064   1.39209
   D70        1.33844   0.00001   0.00203  -0.00236  -0.00034   1.33811
   D71       -0.80332  -0.00004   0.00078  -0.00086  -0.00008  -0.80339
   D72       -2.81372  -0.00006   0.00112  -0.00122  -0.00010  -2.81381
   D73        1.32513  -0.00003  -0.00662   0.01004   0.00343   1.32855
   D74       -0.78677   0.00007  -0.00413   0.00726   0.00313  -0.78364
   D75       -2.85131   0.00002  -0.00337   0.00701   0.00365  -2.84767
   D76       -0.91216  -0.00007  -0.01087   0.01289   0.00203  -0.91013
   D77       -3.02406   0.00003  -0.00837   0.01011   0.00174  -3.02232
   D78        1.19458  -0.00002  -0.00761   0.00986   0.00225   1.19683
   D79       -2.95292  -0.00007  -0.01034   0.01329   0.00295  -2.94997
   D80        1.21837   0.00004  -0.00785   0.01050   0.00265   1.22103
   D81       -0.84617  -0.00001  -0.00709   0.01025   0.00317  -0.84301
   D82        0.86893  -0.00009   0.00117  -0.00053   0.00064   0.86958
   D83        2.99371  -0.00011  -0.00004   0.00094   0.00091   2.99462
   D84       -1.26180  -0.00007   0.00230  -0.00150   0.00080  -1.26100
   D85        3.11080   0.00005   0.00449  -0.00186   0.00262   3.11342
   D86       -1.04761   0.00002   0.00329  -0.00039   0.00289  -1.04472
   D87        0.98006   0.00007   0.00562  -0.00283   0.00278   0.98284
   D88       -1.14550   0.00009   0.00364  -0.00137   0.00227  -1.14324
   D89        0.97927   0.00006   0.00243   0.00010   0.00254   0.98181
   D90        3.00694   0.00010   0.00477  -0.00234   0.00243   3.00937
   D91       -3.00294   0.00004   0.00854  -0.00383   0.00471  -2.99823
   D92       -0.91579   0.00001   0.00775  -0.00310   0.00465  -0.91114
   D93        1.19253   0.00009   0.00931  -0.00449   0.00482   1.19734
   D94       -0.88067   0.00008   0.00700  -0.00139   0.00562  -0.87505
   D95        1.20648   0.00005   0.00620  -0.00066   0.00555   1.21204
   D96       -2.96839   0.00013   0.00777  -0.00205   0.00573  -2.96266
   D97        1.18407  -0.00004   0.00433  -0.00005   0.00427   1.18835
   D98       -3.01196  -0.00007   0.00354   0.00068   0.00421  -3.00776
   D99       -0.90365   0.00001   0.00510  -0.00071   0.00438  -0.89927
   D100       0.24955   0.00005   0.00470  -0.00690  -0.00221   0.24735
   D101      -2.89244  -0.00001  -0.00218  -0.00045  -0.00264  -2.89508
   D102      -1.88980  -0.00016   0.00308  -0.00627  -0.00318  -1.89298
   D103       1.25139  -0.00022  -0.00380   0.00018  -0.00361   1.24778
   D104       2.31571   0.00004   0.00529  -0.00747  -0.00218   2.31353
   D105      -0.82628  -0.00002  -0.00159  -0.00102  -0.00261  -0.82889
   D106       2.94103  -0.00000  -0.00010   0.00215   0.00204   2.94307
   D107      -1.19967  -0.00005  -0.00187   0.00416   0.00229  -1.19738
   D108       0.82118  -0.00007  -0.00094   0.00290   0.00195   0.82313
   D109      -1.21309   0.00028   0.00533  -0.00249   0.00284  -1.21025
   D110       0.92940   0.00023   0.00356  -0.00048   0.00309   0.93249
   D111       2.95024   0.00021   0.00449  -0.00174   0.00276   2.95300
   D112       0.85838  -0.00003   0.00115   0.00054   0.00168   0.86006
   D113       3.00086  -0.00007  -0.00062   0.00255   0.00194   3.00280
   D114      -1.26148  -0.00010   0.00031   0.00129   0.00160  -1.25988
   D115       0.03359  -0.00009  -0.00196   0.00209   0.00014   0.03372
   D116      -3.11294  -0.00011  -0.00264   0.00179  -0.00085  -3.11379
   D117      -3.10759  -0.00002   0.00519  -0.00461   0.00058  -3.10701
   D118       0.02907  -0.00004   0.00451  -0.00491  -0.00040   0.02867
   D119       0.90527   0.00008   0.00248  -0.00089   0.00158   0.90685
   D120       3.04780   0.00007   0.00234  -0.00068   0.00166   3.04946
   D121      -1.17996  -0.00003   0.00282  -0.00153   0.00129  -1.17866
   D122      -2.23671   0.00002  -0.00421   0.00538   0.00116  -2.23555
   D123      -0.09418   0.00001  -0.00435   0.00559   0.00124  -0.09294
   D124       1.96125  -0.00010  -0.00387   0.00475   0.00088   1.96212
   D125       0.22220   0.00000  -0.00186   0.00281   0.00095   0.22316
   D126       2.36825  -0.00006  -0.00057   0.00093   0.00036   2.36862
   D127      -1.90536  -0.00001  -0.00124   0.00187   0.00063  -1.90474
   D128      -2.91457   0.00003  -0.00119   0.00310   0.00192  -2.91265
   D129      -0.76852  -0.00003   0.00010   0.00123   0.00133  -0.76719
   D130       1.24105   0.00001  -0.00058   0.00216   0.00159   1.24264
   D131      -3.01896  -0.00013   0.00160  -0.00248  -0.00088  -3.01983
   D132      -0.95385   0.00011  -0.00292   0.00415   0.00123  -0.95262
   D133       1.16121  -0.00008  -0.00019  -0.00005  -0.00023   1.16098
   D134       1.13059  -0.00015   0.00213  -0.00323  -0.00110   1.12949
   D135      -3.08749   0.00010  -0.00239   0.00340   0.00101  -3.08648
   D136      -0.97242  -0.00010   0.00034  -0.00080  -0.00046  -0.97288
   D137      -0.89438  -0.00006   0.00088  -0.00148  -0.00059  -0.89497
   D138       1.17073   0.00018  -0.00363   0.00515   0.00152   1.17225
   D139      -2.99740  -0.00001  -0.00091   0.00095   0.00006  -2.99734
   D140      -1.06800  -0.00006  -0.00074   0.00070  -0.00002  -1.06802
   D141       3.10799   0.00003   0.00153  -0.00247  -0.00095   3.10704
   D142       1.04255  -0.00000   0.00061  -0.00104  -0.00044   1.04212
   D143       0.98895  -0.00011   0.00131  -0.00309  -0.00177   0.98718
   D144       3.11069   0.00000   0.00031  -0.00127  -0.00096   3.10973
   D145      -1.14418  -0.00013   0.00168  -0.00362  -0.00193  -1.14611
   D146       3.10462  -0.00004  -0.00182   0.00142  -0.00038   3.10424
   D147      -1.05681   0.00008  -0.00282   0.00324   0.00043  -1.05638
   D148       0.97150  -0.00006  -0.00144   0.00088  -0.00054   0.97096
   D149      -1.12397  -0.00001  -0.00092   0.00023  -0.00070  -1.12467
   D150       0.99778   0.00010  -0.00193   0.00205   0.00011   0.99789
   D151       3.02610  -0.00003  -0.00055  -0.00030  -0.00086   3.02523
   D152      -0.97682   0.00002  -0.00047   0.00051   0.00006  -0.97676
   D153      -3.12129   0.00004   0.00013   0.00001   0.00015  -3.12115
   D154       1.13648   0.00006   0.00076  -0.00076   0.00000   1.13648
   D155      -3.09231  -0.00002   0.00011  -0.00046  -0.00034  -3.09265
   D156       1.04640   0.00000   0.00071  -0.00097  -0.00025   1.04615
   D157      -0.97901   0.00001   0.00134  -0.00174  -0.00040  -0.97941
   D158       1.12815   0.00000   0.00020  -0.00045  -0.00024   1.12791
   D159      -1.01633   0.00003   0.00079  -0.00095  -0.00015  -1.01648
   D160      -3.04174   0.00004   0.00142  -0.00172  -0.00029  -3.04203
   D161      -0.95448  -0.00010  -0.00390   0.00349  -0.00041  -0.95489
   D162       1.14536  -0.00000  -0.00408   0.00391  -0.00017   1.14519
   D163      -3.11132   0.00004  -0.00219   0.00218  -0.00001  -3.11133
   D164      -3.08990  -0.00013  -0.00346   0.00261  -0.00085  -3.09075
   D165      -0.99006  -0.00003  -0.00364   0.00302  -0.00061  -0.99068
   D166       1.03644   0.00000  -0.00175   0.00130  -0.00045   1.03599
   D167       1.18784  -0.00003  -0.00324   0.00257  -0.00067   1.18717
   D168      -2.99551   0.00006  -0.00342   0.00298  -0.00044  -2.99594
   D169      -0.96900   0.00010  -0.00153   0.00126  -0.00027  -0.96927
   D170       0.16149  -0.00006  -0.00228   0.00049  -0.00179   0.15970
   D171       2.25870   0.00003  -0.00150   0.00029  -0.00121   2.25749
   D172      -1.95829  -0.00002  -0.00152   0.00034  -0.00118  -1.95946
   D173      -1.91404  -0.00007  -0.00176  -0.00027  -0.00204  -1.91608
   D174       0.18316   0.00002  -0.00098  -0.00047  -0.00145   0.18171
   D175       2.24936  -0.00003  -0.00100  -0.00042  -0.00142   2.24794
   D176       2.28148  -0.00004  -0.00166  -0.00019  -0.00185   2.27963
   D177      -1.90450   0.00005  -0.00088  -0.00039  -0.00127  -1.90577
   D178       0.16170   0.00000  -0.00089  -0.00035  -0.00124   0.16046
   D179       0.33271   0.00011   0.00461  -0.00183   0.00278   0.33549
   D180       2.60480  -0.00058   0.00235  -0.00149   0.00087   2.60567
   D181      -1.62648  -0.00011   0.00514  -0.00188   0.00326  -1.62322
   D182      -1.77324   0.00031   0.00402  -0.00119   0.00283  -1.77041
   D183       0.49885  -0.00039   0.00176  -0.00084   0.00092   0.49977
   D184       2.55075   0.00008   0.00455  -0.00123   0.00331   2.55406
   D185       2.45487   0.00024   0.00325  -0.00087   0.00238   2.45725
   D186      -1.55623  -0.00046   0.00099  -0.00053   0.00047  -1.55576
   D187       0.49568   0.00002   0.00378  -0.00092   0.00286   0.49854
   D188       3.11739   0.00058   0.01307   0.01855   0.03162  -3.13418
   D189      -1.00542   0.00032   0.01140   0.01938   0.03079  -0.97463
   D190       1.07757   0.00007   0.00968   0.01898   0.02867   1.10624
   D191       1.00164   0.00061   0.01363   0.01862   0.03224   1.03388
   D192      -3.12116   0.00035   0.01197   0.01945   0.03141  -3.08975
   D193      -1.03818   0.00010   0.01025   0.01905   0.02930  -1.00888
   D194      -1.06339   0.00016   0.01013   0.01909   0.02921  -1.03418
   D195       1.09699  -0.00010   0.00847   0.01992   0.02838   1.12537
   D196      -3.10321  -0.00035   0.00675   0.01952   0.02626  -3.07694
   D197      -3.04997  -0.00054  -0.01053  -0.00132  -0.01185  -3.06181
   D198      -0.90233  -0.00050  -0.00951  -0.00120  -0.01071  -0.91303
   D199       1.10174  -0.00042  -0.00773  -0.00301  -0.01074   1.09099
   D200       1.04504   0.00012  -0.00789  -0.00215  -0.01005   1.03499
   D201      -3.09050   0.00017  -0.00687  -0.00204  -0.00891  -3.09941
   D202      -1.08644   0.00025  -0.00510  -0.00384  -0.00894  -1.09539
   D203      -1.01462   0.00004  -0.00751  -0.00181  -0.00932  -1.02394
   D204       1.13302   0.00009  -0.00649  -0.00169  -0.00818   1.12484
   D205       3.13708   0.00017  -0.00471  -0.00350  -0.00822   3.12887
   D206       1.12441  -0.00044   0.00010  -0.00682  -0.00672   1.11769
   D207      -0.97836  -0.00039   0.00074  -0.00715  -0.00641  -0.98477
   D208      -3.06801  -0.00045   0.00147  -0.00834  -0.00687  -3.07488
   D209      -3.00765   0.00024   0.00039  -0.00584  -0.00545  -3.01310
   D210       1.17276   0.00029   0.00104  -0.00617  -0.00513   1.16763
   D211      -0.91689   0.00024   0.00176  -0.00735  -0.00559  -0.92248
   D212      -0.95134   0.00003   0.00113  -0.00628  -0.00515  -0.95649
   D213      -3.05411   0.00008   0.00178  -0.00661  -0.00483  -3.05894
   D214       1.13942   0.00002   0.00250  -0.00779  -0.00529   1.13413
   D215       1.01793   0.00013   0.00794  -0.00764   0.00030   1.01824
   D216      -3.12344   0.00018   0.00746  -0.00674   0.00072  -3.12272
   D217      -1.12634   0.00009   0.00880  -0.00888  -0.00008  -1.12642
   D218      -1.13475  -0.00009   0.00643  -0.00779  -0.00136  -1.13611
   D219       1.00706  -0.00004   0.00596  -0.00690  -0.00094   1.00612
   D220       3.00416  -0.00013   0.00730  -0.00904  -0.00174   3.00242
   D221      -3.13514  -0.00005   0.00568  -0.00669  -0.00102  -3.13616
   D222      -0.99333  -0.00001   0.00520  -0.00580  -0.00060  -0.99393
   D223       1.00377  -0.00009   0.00654  -0.00794  -0.00140   1.00237
   D224       1.04186   0.00003   0.00461  -0.00600  -0.00139   1.04047
   D225      -3.11253  -0.00001   0.00345  -0.00482  -0.00138  -3.11390
   D226      -1.10441  -0.00006   0.00424  -0.00618  -0.00193  -1.10634
   D227      -1.08707  -0.00001   0.00464  -0.00627  -0.00163  -1.08869
   D228       1.04174  -0.00005   0.00348  -0.00509  -0.00162   1.04012
   D229       3.04986  -0.00010   0.00427  -0.00645  -0.00218   3.04768
   D230      -3.08281   0.00007   0.00361  -0.00456  -0.00094  -3.08375
   D231      -0.95401   0.00003   0.00245  -0.00338  -0.00093  -0.95494
   D232       1.05411  -0.00002   0.00324  -0.00474  -0.00149   1.05262
   D233       1.06263  -0.00004   0.00213  -0.00435  -0.00222   1.06042
   D234      -3.06385   0.00001   0.00159  -0.00340  -0.00181  -3.06565
   D235      -1.01545  -0.00003   0.00222  -0.00440  -0.00218  -1.01763
   D236      -1.06834  -0.00007   0.00353  -0.00600  -0.00247  -1.07081
   D237       1.08837  -0.00002   0.00299  -0.00505  -0.00206   1.08631
   D238       3.13677  -0.00006   0.00361  -0.00605  -0.00244   3.13433
   D239      -3.06597   0.00001   0.00234  -0.00404  -0.00170  -3.06767
   D240      -0.90926   0.00006   0.00180  -0.00309  -0.00129  -0.91055
   D241       1.13913   0.00002   0.00242  -0.00409  -0.00166   1.13747
   D242       3.11158   0.00002  -0.00147   0.00321   0.00173   3.11331
   D243      -1.07246  -0.00001  -0.00124   0.00275   0.00151  -1.07095
   D244       1.02793   0.00002  -0.00169   0.00349   0.00181   1.02973
   D245       0.95765   0.00002  -0.00089   0.00230   0.00141   0.95907
   D246       3.05680  -0.00002  -0.00065   0.00185   0.00119   3.05799
   D247      -1.12600   0.00001  -0.00110   0.00259   0.00149  -1.12451
   D248      -1.09028   0.00002  -0.00166   0.00336   0.00169  -1.08859
   D249       1.00886  -0.00001  -0.00143   0.00290   0.00147   1.01033
   D250       3.10925   0.00002  -0.00188   0.00364   0.00177   3.11102
   D251      -1.09252  -0.00001  -0.00081   0.00143   0.00062  -1.09190
   D252       0.99853   0.00001  -0.00081   0.00150   0.00070   0.99923
   D253       3.10057  -0.00001  -0.00092   0.00159   0.00066   3.10123
   D254       1.08312   0.00000  -0.00160   0.00264   0.00104   1.08415
   D255      -3.10902   0.00002  -0.00160   0.00272   0.00112  -3.10790
   D256      -1.00699   0.00000  -0.00172   0.00280   0.00108  -1.00591
   D257       3.13494   0.00001  -0.00107   0.00195   0.00087   3.13582
   D258      -1.05719   0.00002  -0.00107   0.00202   0.00095  -1.05624
   D259       1.04484   0.00000  -0.00119   0.00211   0.00092   1.04576
         Item               Value     Threshold  Converged?
 Maximum Force            0.001341     0.000450     NO 
 RMS     Force            0.000187     0.000300     YES
 Maximum Displacement     0.155510     0.001800     NO 
 RMS     Displacement     0.030255     0.001200     NO 
 Predicted change in Energy=-6.260998D-05
 Lowest energy point so far.  Saving SCF results.
 GradGradGradGradGradGradGradGradGradGradGradGradGradGradGradGradGradGrad

 Leave Link  103 at Mon Jul 28 18:56:11 2025, MaxMem=  1073741824 cpu:               1.2 elap:               0.2
 (Enter /app/gaussian/g16/l202.exe)
 Stoichiometry    C27H46O
 Framework group  C1[X(C27H46O)]
 Deg. of freedom   216
 Full point group                 C1      NOp   1
 RotChk:  IX=0 Diff= 1.33D-02
 Largest Abelian subgroup         C1      NOp   1
 Largest concise Abelian subgroup C1      NOp   1
                         Standard orientation:                         
 ---------------------------------------------------------------------
 Center     Atomic      Atomic             Coordinates (Angstroms)
 Number     Number       Type             X           Y           Z
 ---------------------------------------------------------------------
      1          6           0       -0.989331   -0.315151    1.466138
      2          6           0       -0.732253   -0.408397   -0.059426
      3          6           0        0.100638    0.798255   -0.598395
      4          6           0        1.510085    0.941230    0.000164
      5          6           0        2.315445   -0.369655   -0.238084
      6          6           0        3.755345   -0.317502    0.396637
      7          6           0        3.708670   -0.507467    1.941831
      8          6           0        4.422407    1.034962    0.079558
      9          6           0        3.741810    2.096061   -0.390778
     10          6           0        2.256396    2.134720   -0.632397
     11          6           0        5.920762    1.126817    0.326635
     12          6           0        6.689271   -0.014898   -0.357582
     13          8           0        8.108350   -0.009601    0.022836
     14          6           0        6.128806   -1.367525    0.065199
     15          6           0        4.621824   -1.454860   -0.243897
     16          6           0        1.510031   -1.628806    0.174879
     17          6           0        0.075528   -1.682372   -0.406034
     18          6           0       -0.864767    1.996346   -0.515057
     19          6           0       -2.257487    1.373168   -0.832794
     20          6           0       -2.076188   -0.189846   -0.852108
     21          6           0       -3.362726   -0.940466   -0.400155
     22          6           0       -4.544838   -0.568609   -1.341956
     23          6           0       -5.931960   -1.143326   -0.970377
     24          6           0       -6.461462   -0.762374    0.430371
     25          6           0       -6.639766    0.751408    0.707969
     26          6           0       -7.648783    1.409010   -0.255383
     27          6           0       -7.067694    0.976567    2.173106
     28          6           0       -3.180925   -2.471748   -0.342855
     29          1           0       -1.532592   -1.199541    1.819494
     30          1           0       -0.058862   -0.253267    2.037922
     31          1           0       -1.590087    0.564136    1.722411
     32          1           0        0.249630    0.588098   -1.674345
     33          1           0        1.428581    1.124873    1.082392
     34          1           0        2.471471   -0.429219   -1.330472
     35          1           0        4.688413   -0.327160    2.394013
     36          1           0        3.001562    0.191327    2.401630
     37          1           0        3.409693   -1.527613    2.206826
     38          1           0        4.290480    3.011949   -0.616078
     39          1           0        1.846201    3.079581   -0.247557
     40          1           0        2.060061    2.149894   -1.719255
     41          1           0        6.290705    2.100201   -0.023695
     42          1           0        6.145482    1.066808    1.401991
     43          1           0        6.614349    0.093429   -1.451209
     44          1           0        8.543369    0.823739   -0.248730
     45          1           0        6.668038   -2.166251   -0.457793
     46          1           0        6.322314   -1.503037    1.137029
     47          1           0        4.243584   -2.428676    0.089647
     48          1           0        4.481674   -1.417002   -1.334812
     49          1           0        2.047777   -2.530012   -0.146263
     50          1           0        1.445647   -1.685080    1.268061
     51          1           0        0.125624   -1.777837   -1.502011
     52          1           0       -0.416293   -2.587491   -0.032858
     53          1           0       -0.847984    2.437686    0.490777
     54          1           0       -0.600712    2.794160   -1.218196
     55          1           0       -2.995335    1.657839   -0.071174
     56          1           0       -2.642604    1.734243   -1.792660
     57          1           0       -1.873136   -0.500362   -1.892126
     58          1           0       -3.612699   -0.587213    0.612397
     59          1           0       -4.626260    0.523242   -1.399953
     60          1           0       -4.291578   -0.909342   -2.359079
     61          1           0       -6.650449   -0.811366   -1.733110
     62          1           0       -5.913183   -2.238996   -1.044887
     63          1           0       -7.435763   -1.255165    0.579375
     64          1           0       -5.791606   -1.178668    1.197266
     65          1           0       -5.665202    1.244990    0.566918
     66          1           0       -7.777202    2.472719   -0.018491
     67          1           0       -7.326459    1.337753   -1.300375
     68          1           0       -8.632606    0.925961   -0.172101
     69          1           0       -8.041959    0.507352    2.368666
     70          1           0       -6.340384    0.543074    2.871234
     71          1           0       -7.159220    2.046268    2.399450
     72          1           0       -2.444112   -2.768453    0.408093
     73          1           0       -2.847436   -2.861187   -1.314692
     74          1           0       -4.120759   -2.972817   -0.087603
 ---------------------------------------------------------------------
 Rotational constants (GHZ):           0.5339144           0.0601756           0.0578773
 Leave Link  202 at Mon Jul 28 18:56:11 2025, MaxMem=  1073741824 cpu:               0.1 elap:               0.0
 (Enter /app/gaussian/g16/l301.exe)
 Standard basis: 6-31+G (6D, 7F)
 Ernie: Thresh=  0.10000D-02 Tol=  0.10000D-05 Strict=F.
 There are   456 symmetry adapted cartesian basis functions of A   symmetry.
 There are   456 symmetry adapted basis functions of A   symmetry.
   456 basis functions,   912 primitive gaussians,   456 cartesian basis functions
   108 alpha electrons      108 beta electrons
       nuclear repulsion energy      2810.2298403276 Hartrees.
 IExCor=  402 DFT=T Ex+Corr=B3LYP ExCW=0 ScaHFX=  0.200000
 ScaDFX=  0.800000  0.720000  1.000000  0.810000 ScalE2=  1.000000  1.000000
 IRadAn=      5 IRanWt=     -1 IRanGd=            0 ICorTp=0 IEmpDi=  4
 NAtoms=   74 NActive=   74 NUniq=   74 SFac= 1.00D+00 NAtFMM=   60 NAOKFM=T Big=T
 Integral buffers will be    131072 words long.
 Raffenetti 2 integral format.
 Two-electron integral symmetry is turned on.
 Leave Link  301 at Mon Jul 28 18:56:11 2025, MaxMem=  1073741824 cpu:               0.4 elap:               0.1
 (Enter /app/gaussian/g16/l302.exe)
 NPDir=0 NMtPBC=     1 NCelOv=     1 NCel=       1 NClECP=     1 NCelD=      1
         NCelK=      1 NCelE2=     1 NClLst=     1 CellRange=     0.0.
 One-electron integrals computed using PRISM.
 One-electron integral symmetry used in STVInt
 NBasis=   456 RedAO= T EigKep=  1.03D-06  NBF=   456
 NBsUse=   455 1.00D-06 EigRej=  5.94D-07 NBFU=   455
 Precomputing XC quadrature grid using
 IXCGrd= 4 IRadAn=           5 IRanWt=          -1 IRanGd=           0 AccXCQ= 0.00D+00.
 Generated NRdTot=       0 NPtTot=           0 NUsed=           0 NTot=          32
 NSgBfM=   441   440   440   441   441 MxSgAt=    74 MxSgA2=    74.
 Leave Link  302 at Mon Jul 28 18:56:12 2025, MaxMem=  1073741824 cpu:              11.6 elap:               1.5
 (Enter /app/gaussian/g16/l303.exe)
 DipDrv:  MaxL=1.
 Leave Link  303 at Mon Jul 28 18:56:12 2025, MaxMem=  1073741824 cpu:               0.4 elap:               0.1
 (Enter /app/gaussian/g16/l401.exe)
 Initial guess from the checkpoint file:  "/work/scr/Gau-255599.chk"
 B after Tr=    -0.000000    0.000000   -0.000000
         Rot=    0.999988   -0.004950    0.000323   -0.000189 Ang=  -0.57 deg.
 Guess basis will be translated and rotated to current coordinates.
 JPrj=2 DoOrth=T DoCkMO=T.
 Generating alternative initial guess.
 ExpMin= 4.38D-02 ExpMax= 5.48D+03 ExpMxC= 8.25D+02 IAcc=3 IRadAn=         5 AccDes= 0.00D+00
 Harris functional with IExCor=  402 and IRadAn=       5 diagonalized for initial guess.
 HarFok:  IExCor=  402 AccDes= 0.00D+00 IRadAn=         5 IDoV= 1 UseB2=F ITyADJ=14
 ICtDFT=  3500011 ScaDFX=  1.000000  1.000000  1.000000  1.000000
 FoFCou: FMM=F IPFlag=           0 FMFlag=      100000 FMFlg1=        2001
         NFxFlg=           0 DoJE=T BraDBF=F KetDBF=T FulRan=T
         wScrn=  0.000000 ICntrl=       500 IOpCl=  0 I1Cent=   200000004 NGrid=           0
         NMat0=    1 NMatS0=      1 NMatT0=    0 NMatD0=    1 NMtDS0=    0 NMtDT0=    0
 Petite list used in FoFCou.
 Harris En= -1131.63626598698    
 Leave Link  401 at Mon Jul 28 18:56:22 2025, MaxMem=  1073741824 cpu:              77.5 elap:               9.7
 (Enter /app/gaussian/g16/l502.exe)
 Integral symmetry usage will be decided dynamically.
 Closed shell SCF:
 Using DIIS extrapolation, IDIIS=  1040.
 NGot=  1073741824 LenX=  1073314746 LenY=  1073106354
 Requested convergence on RMS density matrix=1.00D-08 within 128 cycles.
 Requested convergence on MAX density matrix=1.00D-06.
 Requested convergence on             energy=1.00D-06.
 No special actions if energy rises.
 Fock matrices will be formed incrementally for  20 cycles.

 Cycle   1  Pass 1  IDiag  1:
 FoFJK:  IHMeth= 1 ICntrl=       0 DoSepK=F KAlg= 0 I1Cent=           0 FoldK=F
 IRaf= 990000000 NMat=       1 IRICut=       1 DoRegI=T DoRafI=F ISym2E= 0 IDoP0=0 IntGTp=1.
 FoFCou: FMM=T IPFlag=           0 FMFlag=      100000 FMFlg1=        2001
         NFxFlg=           0 DoJE=F BraDBF=F KetDBF=F FulRan=T
         wScrn=  0.000000 ICntrl=         0 IOpCl=  0 I1Cent=           0 NGrid=           0
         NMat0=    1 NMatS0=      1 NMatT0=    0 NMatD0=    1 NMtDS0=    0 NMtDT0=    0
 Symmetry not used in FoFCou.
 FMM levels:  10  Number of levels for PrismC:   9
 E= -1131.55350831312    
 DIIS: error= 3.87D-03 at cycle   1 NSaved=   1.
 NSaved= 1 IEnMin= 1 EnMin= -1131.55350831312     IErMin= 1 ErrMin= 3.87D-03
 ErrMax= 3.87D-03  0.00D+00 EMaxC= 1.00D-01 BMatC= 5.09D-03 BMatP= 5.09D-03
 IDIUse=3 WtCom= 9.61D-01 WtEn= 3.87D-02
 Coeff-Com:  0.100D+01
 Coeff-En:   0.100D+01
 Coeff:      0.100D+01
 Gap=     0.521 Goal=   None    Shift=    0.000
 GapD=    0.521 DampG=2.000 DampE=1.000 DampFc=2.0000 IDamp=-1.
 RMSDP=2.45D-03 MaxDP=1.52D-01              OVMax= 9.18D-03

 Cycle   2  Pass 1  IDiag  1:
 RMSU=  2.40D-03    CP:  1.00D+00
 E= -1131.55720382623     Delta-E=       -0.003695513108 Rises=F Damp=F
 DIIS: error= 1.17D-04 at cycle   2 NSaved=   2.
 NSaved= 2 IEnMin= 2 EnMin= -1131.55720382623     IErMin= 2 ErrMin= 1.17D-04
 ErrMax= 1.17D-04  0.00D+00 EMaxC= 1.00D-01 BMatC= 2.52D-05 BMatP= 5.09D-03
 IDIUse=3 WtCom= 9.99D-01 WtEn= 1.17D-03
 Coeff-Com: -0.731D-02 0.101D+01
 Coeff-En:   0.000D+00 0.100D+01
 Coeff:     -0.730D-02 0.101D+01
 Gap=     0.231 Goal=   None    Shift=    0.000
 RMSDP=9.22D-04 MaxDP=9.40D-02 DE=-3.70D-03 OVMax= 1.43D-03

 Cycle   3  Pass 1  IDiag  1:
 RMSU=  7.16D-04    CP:  1.01D+00  8.93D-01
 E= -1131.55720451971     Delta-E=       -0.000000693482 Rises=F Damp=F
 DIIS: error= 1.51D-04 at cycle   3 NSaved=   3.
 NSaved= 3 IEnMin= 3 EnMin= -1131.55720451971     IErMin= 2 ErrMin= 1.17D-04
 ErrMax= 1.51D-04  0.00D+00 EMaxC= 1.00D-01 BMatC= 3.42D-05 BMatP= 2.52D-05
 IDIUse=3 WtCom= 4.49D-01 WtEn= 5.51D-01
 Coeff-Com: -0.828D-02 0.549D+00 0.460D+00
 Coeff-En:   0.000D+00 0.495D+00 0.505D+00
 Coeff:     -0.371D-02 0.519D+00 0.485D+00
 Gap=     0.231 Goal=   None    Shift=    0.000
 RMSDP=5.22D-04 MaxDP=5.43D-02 DE=-6.93D-07 OVMax= 1.15D-03

 Cycle   4  Pass 1  IDiag  1:
 RMSU=  1.44D-04    CP:  1.01D+00  9.63D-01  4.59D-01
 E= -1131.55724040288     Delta-E=       -0.000035883164 Rises=F Damp=F
 DIIS: error= 5.91D-05 at cycle   4 NSaved=   4.
 NSaved= 4 IEnMin= 4 EnMin= -1131.55724040288     IErMin= 4 ErrMin= 5.91D-05
 ErrMax= 5.91D-05  0.00D+00 EMaxC= 1.00D-01 BMatC= 1.46D-06 BMatP= 2.52D-05
 IDIUse=1 WtCom= 1.00D+00 WtEn= 0.00D+00
 Coeff-Com: -0.252D-02 0.128D+00 0.209D+00 0.666D+00
 Coeff:     -0.252D-02 0.128D+00 0.209D+00 0.666D+00
 Gap=     0.231 Goal=   None    Shift=    0.000
 RMSDP=6.78D-05 MaxDP=5.44D-03 DE=-3.59D-05 OVMax= 7.61D-04

 Cycle   5  Pass 1  IDiag  1:
 RMSU=  4.29D-05    CP:  1.01D+00  9.57D-01  5.05D-01  7.34D-01
 E= -1131.55724142126     Delta-E=       -0.000001018386 Rises=F Damp=F
 DIIS: error= 4.74D-05 at cycle   5 NSaved=   5.
 NSaved= 5 IEnMin= 5 EnMin= -1131.55724142126     IErMin= 5 ErrMin= 4.74D-05
 ErrMax= 4.74D-05  0.00D+00 EMaxC= 1.00D-01 BMatC= 5.38D-07 BMatP= 1.46D-06
 IDIUse=1 WtCom= 1.00D+00 WtEn= 0.00D+00
 Coeff-Com: -0.325D-03-0.545D-02 0.648D-01 0.455D+00 0.486D+00
 Coeff:     -0.325D-03-0.545D-02 0.648D-01 0.455D+00 0.486D+00
 Gap=     0.231 Goal=   None    Shift=    0.000
 RMSDP=2.44D-05 MaxDP=2.01D-03 DE=-1.02D-06 OVMax= 3.92D-04

 Cycle   6  Pass 1  IDiag  1:
 RMSU=  1.55D-05    CP:  1.01D+00  9.58D-01  5.13D-01  7.66D-01  7.01D-01
 E= -1131.55724195926     Delta-E=       -0.000000538000 Rises=F Damp=F
 DIIS: error= 6.15D-06 at cycle   6 NSaved=   6.
 NSaved= 6 IEnMin= 6 EnMin= -1131.55724195926     IErMin= 6 ErrMin= 6.15D-06
 ErrMax= 6.15D-06  0.00D+00 EMaxC= 1.00D-01 BMatC= 1.56D-08 BMatP= 5.38D-07
 IDIUse=1 WtCom= 1.00D+00 WtEn= 0.00D+00
 Coeff-Com: -0.943D-05-0.107D-01 0.197D-01 0.186D+00 0.243D+00 0.563D+00
 Coeff:     -0.943D-05-0.107D-01 0.197D-01 0.186D+00 0.243D+00 0.563D+00
 Gap=     0.231 Goal=   None    Shift=    0.000
 RMSDP=8.30D-06 MaxDP=4.65D-04 DE=-5.38D-07 OVMax= 5.35D-05

 Cycle   7  Pass 1  IDiag  1:
 RMSU=  4.69D-06    CP:  1.01D+00  9.58D-01  5.13D-01  7.87D-01  6.59D-01
                    CP:  6.49D-01
 E= -1131.55724197579     Delta-E=       -0.000000016531 Rises=F Damp=F
 DIIS: error= 1.16D-06 at cycle   7 NSaved=   7.
 NSaved= 7 IEnMin= 7 EnMin= -1131.55724197579     IErMin= 7 ErrMin= 1.16D-06
 ErrMax= 1.16D-06  0.00D+00 EMaxC= 1.00D-01 BMatC= 1.41D-09 BMatP= 1.56D-08
 IDIUse=1 WtCom= 1.00D+00 WtEn= 0.00D+00
 Coeff-Com:  0.231D-04-0.508D-02 0.450D-02 0.556D-01 0.816D-01 0.293D+00
 Coeff-Com:  0.570D+00
 Coeff:      0.231D-04-0.508D-02 0.450D-02 0.556D-01 0.816D-01 0.293D+00
 Coeff:      0.570D+00
 Gap=     0.231 Goal=   None    Shift=    0.000
 RMSDP=2.78D-06 MaxDP=1.79D-04 DE=-1.65D-08 OVMax= 9.76D-06

 Cycle   8  Pass 1  IDiag  1:
 RMSU=  1.60D-06    CP:  1.01D+00  9.58D-01  5.14D-01  7.91D-01  6.59D-01
                    CP:  6.55D-01  6.77D-01
 E= -1131.55724197737     Delta-E=       -0.000000001578 Rises=F Damp=F
 DIIS: error= 2.82D-07 at cycle   8 NSaved=   8.
 NSaved= 8 IEnMin= 8 EnMin= -1131.55724197737     IErMin= 8 ErrMin= 2.82D-07
 ErrMax= 2.82D-07  0.00D+00 EMaxC= 1.00D-01 BMatC= 5.38D-11 BMatP= 1.41D-09
 IDIUse=1 WtCom= 1.00D+00 WtEn= 0.00D+00
 Coeff-Com:  0.102D-04-0.160D-02 0.904D-03 0.137D-01 0.218D-01 0.965D-01
 Coeff-Com:  0.249D+00 0.620D+00
 Coeff:      0.102D-04-0.160D-02 0.904D-03 0.137D-01 0.218D-01 0.965D-01
 Coeff:      0.249D+00 0.620D+00
 Gap=     0.231 Goal=   None    Shift=    0.000
 RMSDP=6.43D-07 MaxDP=6.91D-05 DE=-1.58D-09 OVMax= 1.54D-06

 Cycle   9  Pass 1  IDiag  1:
 RMSU=  3.14D-07    CP:  1.01D+00  9.58D-01  5.14D-01  7.91D-01  6.64D-01
                    CP:  6.70D-01  6.72D-01  7.60D-01
 E= -1131.55724197754     Delta-E=       -0.000000000166 Rises=F Damp=F
 DIIS: error= 1.39D-07 at cycle   9 NSaved=   9.
 NSaved= 9 IEnMin= 9 EnMin= -1131.55724197754     IErMin= 9 ErrMin= 1.39D-07
 ErrMax= 1.39D-07  0.00D+00 EMaxC= 1.00D-01 BMatC= 8.13D-12 BMatP= 5.38D-11
 IDIUse=1 WtCom= 1.00D+00 WtEn= 0.00D+00
 Coeff-Com:  0.325D-05-0.377D-03 0.642D-04 0.209D-02 0.401D-02 0.244D-01
 Coeff-Com:  0.803D-01 0.328D+00 0.562D+00
 Coeff:      0.325D-05-0.377D-03 0.642D-04 0.209D-02 0.401D-02 0.244D-01
 Coeff:      0.803D-01 0.328D+00 0.562D+00
 Gap=     0.231 Goal=   None    Shift=    0.000
 RMSDP=1.44D-07 MaxDP=1.19D-05 DE=-1.66D-10 OVMax= 6.15D-07

 Cycle  10  Pass 1  IDiag  1:
 RMSU=  1.04D-07    CP:  1.01D+00  9.58D-01  5.14D-01  7.91D-01  6.64D-01
                    CP:  6.71D-01  6.78D-01  7.73D-01  8.38D-01
 E= -1131.55724197771     Delta-E=       -0.000000000171 Rises=F Damp=F
 DIIS: error= 3.50D-08 at cycle  10 NSaved=  10.
 NSaved=10 IEnMin=10 EnMin= -1131.55724197771     IErMin=10 ErrMin= 3.50D-08
 ErrMax= 3.50D-08  0.00D+00 EMaxC= 1.00D-01 BMatC= 7.37D-13 BMatP= 8.13D-12
 IDIUse=1 WtCom= 1.00D+00 WtEn= 0.00D+00
 Coeff-Com:  0.678D-07 0.545D-04-0.108D-03-0.105D-02-0.131D-02-0.254D-02
 Coeff-Com:  0.267D-02 0.701D-01 0.271D+00 0.661D+00
 Coeff:      0.678D-07 0.545D-04-0.108D-03-0.105D-02-0.131D-02-0.254D-02
 Coeff:      0.267D-02 0.701D-01 0.271D+00 0.661D+00
 Gap=     0.231 Goal=   None    Shift=    0.000
 RMSDP=6.56D-08 MaxDP=4.91D-06 DE=-1.71D-10 OVMax= 1.94D-07

 Cycle  11  Pass 1  IDiag  1:
 RMSU=  3.99D-08    CP:  1.01D+00  9.58D-01  5.14D-01  7.91D-01  6.64D-01
                    CP:  6.70D-01  6.80D-01  7.91D-01  8.11D-01  8.16D-01
 E= -1131.55724197770     Delta-E=        0.000000000012 Rises=F Damp=F
 DIIS: error= 7.68D-09 at cycle  11 NSaved=  11.
 NSaved=11 IEnMin=10 EnMin= -1131.55724197771     IErMin=11 ErrMin= 7.68D-09
 ErrMax= 7.68D-09  0.00D+00 EMaxC= 1.00D-01 BMatC= 6.68D-14 BMatP= 7.37D-13
 IDIUse=1 WtCom= 1.00D+00 WtEn= 0.00D+00
 Coeff-Com: -0.170D-06 0.523D-04-0.590D-04-0.663D-03-0.918D-03-0.288D-02
 Coeff-Com: -0.392D-02 0.142D-01 0.100D+00 0.335D+00 0.559D+00
 Coeff:     -0.170D-06 0.523D-04-0.590D-04-0.663D-03-0.918D-03-0.288D-02
 Coeff:     -0.392D-02 0.142D-01 0.100D+00 0.335D+00 0.559D+00
 Gap=     0.231 Goal=   None    Shift=    0.000
 RMSDP=1.78D-08 MaxDP=1.01D-06 DE= 1.18D-11 OVMax= 4.85D-08

 Cycle  12  Pass 1  IDiag  1:
 RMSU=  8.98D-09    CP:  1.01D+00  9.58D-01  5.14D-01  7.91D-01  6.64D-01
                    CP:  6.71D-01  6.81D-01  7.91D-01  8.28D-01  8.02D-01
                    CP:  6.84D-01
 E= -1131.55724197771     Delta-E=       -0.000000000013 Rises=F Damp=F
 DIIS: error= 1.57D-09 at cycle  12 NSaved=  12.
 NSaved=12 IEnMin=12 EnMin= -1131.55724197771     IErMin=12 ErrMin= 1.57D-09
 ErrMax= 1.57D-09  0.00D+00 EMaxC= 1.00D-01 BMatC= 3.60D-15 BMatP= 6.68D-14
 IDIUse=1 WtCom= 1.00D+00 WtEn= 0.00D+00
 Coeff-Com: -0.773D-07 0.176D-04-0.155D-04-0.189D-03-0.275D-03-0.100D-02
 Coeff-Com: -0.191D-02-0.741D-04 0.191D-01 0.848D-01 0.239D+00 0.661D+00
 Coeff:     -0.773D-07 0.176D-04-0.155D-04-0.189D-03-0.275D-03-0.100D-02
 Coeff:     -0.191D-02-0.741D-04 0.191D-01 0.848D-01 0.239D+00 0.661D+00
 Gap=     0.231 Goal=   None    Shift=    0.000
 RMSDP=5.62D-09 MaxDP=4.55D-07 DE=-1.27D-11 OVMax= 9.06D-09

 SCF Done:  E(RB3LYP) =  -1131.55724198     A.U. after   12 cycles
            NFock= 12  Conv=0.56D-08     -V/T= 2.0059
 KE= 1.124916612344D+03 PE=-8.242217828930D+03 EE= 3.175514134281D+03
 Leave Link  502 at Mon Jul 28 19:00:18 2025, MaxMem=  1073741824 cpu:            1881.7 elap:             236.0
 (Enter /app/gaussian/g16/l701.exe)
 ... and contract with generalized density number  0.
 Compute integral first derivatives.
 Leave Link  701 at Mon Jul 28 19:00:18 2025, MaxMem=  1073741824 cpu:               1.9 elap:               0.3
 (Enter /app/gaussian/g16/l702.exe)
 L702 exits ... SP integral derivatives will be done elsewhere.
 Leave Link  702 at Mon Jul 28 19:00:19 2025, MaxMem=  1073741824 cpu:               0.2 elap:               0.0
 (Enter /app/gaussian/g16/l703.exe)
 Integral derivatives from FoFJK, PRISM(SPDF).
 Compute integral first derivatives, UseDBF=F ICtDFT=           0.
 Calling FoFJK, ICntrl=      2127 FMM=T ISym2X=0 I1Cent= 0 IOpClX= 0 NMat=1 NMatS=1 NMatT=0.
 FoFJK:  IHMeth= 1 ICntrl=    2127 DoSepK=F KAlg= 0 I1Cent=           0 FoldK=F
 IRaf=         0 NMat=       1 IRICut=       1 DoRegI=T DoRafI=F ISym2E= 0 IDoP0=0 IntGTp=1.
 FoFCou: FMM=T IPFlag=           0 FMFlag=      100000 FMFlg1=        2001
         NFxFlg=           0 DoJE=F BraDBF=F KetDBF=F FulRan=T
         wScrn=  0.000000 ICntrl=      2127 IOpCl=  0 I1Cent=           0 NGrid=           0
         NMat0=    1 NMatS0=      1 NMatT0=    0 NMatD0=    1 NMtDS0=    0 NMtDT0=    0
 Symmetry not used in FoFCou.
 FMM levels:  10  Number of levels for PrismC:   9
 Leave Link  703 at Mon Jul 28 19:01:10 2025, MaxMem=  1073741824 cpu:             406.5 elap:              51.0
 (Enter /app/gaussian/g16/l716.exe)
 Dipole        =-5.87281142D-01 4.50974111D-01-3.12694967D-01
 ***** Axes restored to original set *****
 -------------------------------------------------------------------
 Center     Atomic                   Forces (Hartrees/Bohr)
 Number     Number              X              Y              Z
 -------------------------------------------------------------------
      1        6          -0.000036285    0.000115874   -0.000145512
      2        6          -0.000047956   -0.000213561    0.000141105
      3        6           0.000091000    0.000078725   -0.000132331
      4        6           0.000088938   -0.000092304   -0.000128026
      5        6          -0.000140208   -0.000027029    0.000093273
      6        6          -0.000119028   -0.000286151   -0.000057123
      7        6          -0.000089504    0.000052341   -0.000285865
      8        6          -0.000023567    0.000259929    0.000145880
      9        6           0.000010934    0.000002259   -0.000107271
     10        6           0.000058549    0.000034632   -0.000009595
     11        6           0.000008837    0.000231658    0.000163472
     12        6           0.000290452    0.000086220   -0.000076908
     13        8          -0.000342880   -0.000051903    0.000113056
     14        6           0.000233142   -0.000130788   -0.000159870
     15        6          -0.000090368   -0.000102897   -0.000095925
     16        6           0.000264735   -0.000033307   -0.000003021
     17        6          -0.000048928    0.000020198   -0.000067302
     18        6           0.000041362    0.000091230    0.000145608
     19        6           0.000126936    0.000083611    0.000096902
     20        6          -0.000109558    0.000036725   -0.000064926
     21        6          -0.000098517    0.000156944    0.000097686
     22        6          -0.000128584    0.000008041    0.000073061
     23        6          -0.000106472   -0.000126945    0.000084859
     24        6           0.000044500   -0.000098394   -0.000046087
     25        6          -0.000050669    0.000056897   -0.000119324
     26        6           0.000027806    0.000089856    0.000109709
     27        6           0.000054028    0.000105280    0.000010543
     28        6           0.000061242    0.000058648   -0.000294306
     29        1          -0.000074269   -0.000127699   -0.000045328
     30        1           0.000009983   -0.000002483    0.000047465
     31        1           0.000007783   -0.000047605    0.000025687
     32        1          -0.000042697   -0.000069245    0.000019986
     33        1          -0.000067385    0.000025219   -0.000060956
     34        1           0.000131348   -0.000010523    0.000073325
     35        1          -0.000014592   -0.000038626    0.000076037
     36        1           0.000004798   -0.000033564    0.000052101
     37        1          -0.000097213   -0.000082858    0.000036991
     38        1           0.000043692   -0.000009338    0.000050834
     39        1           0.000047556    0.000009605    0.000064653
     40        1          -0.000099282   -0.000008879    0.000063225
     41        1          -0.000033484   -0.000038789    0.000037403
     42        1           0.000024296   -0.000107258   -0.000062676
     43        1           0.000004160    0.000030253    0.000083623
     44        1           0.000003338   -0.000026282   -0.000054619
     45        1          -0.000078266    0.000024198    0.000032412
     46        1          -0.000075505    0.000095732    0.000069108
     47        1          -0.000044907    0.000001075   -0.000028060
     48        1          -0.000009963    0.000050608    0.000026442
     49        1           0.000036068    0.000044089    0.000017332
     50        1           0.000070792    0.000074915   -0.000029350
     51        1           0.000008563    0.000057816    0.000041409
     52        1           0.000004644    0.000048317   -0.000009964
     53        1           0.000021231   -0.000038833   -0.000049153
     54        1          -0.000018267   -0.000030789   -0.000010922
     55        1           0.000085808   -0.000005987   -0.000059674
     56        1           0.000050638    0.000040687   -0.000022528
     57        1           0.000064063   -0.000071310    0.000060926
     58        1           0.000002635    0.000030163   -0.000056079
     59        1          -0.000044619   -0.000179419   -0.000151505
     60        1          -0.000052675   -0.000045278    0.000077734
     61        1           0.000031199    0.000028359    0.000007594
     62        1          -0.000025583    0.000072792   -0.000018617
     63        1          -0.000030956   -0.000056669   -0.000019775
     64        1           0.000009428    0.000058251    0.000023689
     65        1           0.000068849    0.000027167    0.000057352
     66        1          -0.000016911    0.000009717   -0.000037046
     67        1           0.000023170   -0.000026137   -0.000043383
     68        1          -0.000043986   -0.000038565   -0.000041920
     69        1          -0.000043841   -0.000042822    0.000014969
     70        1           0.000006905   -0.000059772    0.000034636
     71        1          -0.000016014   -0.000015182    0.000043928
     72        1           0.000103102    0.000050604    0.000018342
     73        1           0.000065654   -0.000006154    0.000069007
     74        1           0.000030777    0.000034710    0.000093582
 -------------------------------------------------------------------
 Cartesian Forces:  Max     0.000342880 RMS     0.000088807
 Leave Link  716 at Mon Jul 28 19:01:10 2025, MaxMem=  1073741824 cpu:               0.2 elap:               0.0
 (Enter /app/gaussian/g16/l103.exe)

 GradGradGradGradGradGradGradGradGradGradGradGradGradGradGradGradGradGrad
 Berny optimization.
 Using GEDIIS/GDIIS optimizer.
 FormGI is forming the generalized inverse of G from B-inverse, IUseBI=4.
 Internal  Forces:  Max     0.000428462 RMS     0.000069367
 Search for a local minimum.
 Step number   5 out of a maximum of  444
 All quantities printed in internal units (Hartrees-Bohrs-Radians)
 RMS Force = .69367D-04 SwitMx=.10000D-02 MixMth= 2
 Mixed Optimization -- En-DIIS/RFO-DIIS
 Swapping is turned off.
 Update second derivatives using D2CorX and points    1    2    3    4    5
 DE= -4.40D-05 DEPred=-6.26D-05 R= 7.02D-01
 TightC=F SS=  1.41D+00  RLast= 1.00D-01 DXNew= 1.3636D+00 3.0109D-01
 Trust test= 7.02D-01 RLast= 1.00D-01 DXMaxT set to 8.11D-01
 ITU=  1  0  1  1  0
     Eigenvalues ---    0.00218   0.00231   0.00232   0.00235   0.00297
     Eigenvalues ---    0.00309   0.00338   0.00342   0.00354   0.00377
     Eigenvalues ---    0.00404   0.00467   0.00499   0.00508   0.00562
     Eigenvalues ---    0.00597   0.00677   0.00983   0.01172   0.01344
     Eigenvalues ---    0.01412   0.01633   0.01731   0.02200   0.02320
     Eigenvalues ---    0.02428   0.02672   0.03059   0.03115   0.03134
     Eigenvalues ---    0.03183   0.03242   0.03328   0.03443   0.03519
     Eigenvalues ---    0.03634   0.03744   0.03849   0.03877   0.04173
     Eigenvalues ---    0.04334   0.04394   0.04455   0.04610   0.04646
     Eigenvalues ---    0.04678   0.04688   0.04707   0.04716   0.04735
     Eigenvalues ---    0.04769   0.04791   0.04827   0.04928   0.04966
     Eigenvalues ---    0.05004   0.05089   0.05210   0.05267   0.05296
     Eigenvalues ---    0.05391   0.05422   0.05427   0.05429   0.05434
     Eigenvalues ---    0.05452   0.05471   0.05508   0.05516   0.05548
     Eigenvalues ---    0.05573   0.05593   0.05640   0.05763   0.05833
     Eigenvalues ---    0.05986   0.06143   0.06595   0.06964   0.07088
     Eigenvalues ---    0.07277   0.07476   0.07563   0.07754   0.08078
     Eigenvalues ---    0.08114   0.08196   0.08591   0.08725   0.08850
     Eigenvalues ---    0.08920   0.08992   0.09179   0.09313   0.09530
     Eigenvalues ---    0.10261   0.10360   0.10749   0.11362   0.12209
     Eigenvalues ---    0.12550   0.12630   0.12658   0.12854   0.13690
     Eigenvalues ---    0.13881   0.14470   0.15001   0.15549   0.15744
     Eigenvalues ---    0.15967   0.16000   0.16000   0.16000   0.16000
     Eigenvalues ---    0.16000   0.16000   0.16000   0.16000   0.16000
     Eigenvalues ---    0.16000   0.16000   0.16000   0.16010   0.16049
     Eigenvalues ---    0.16247   0.16581   0.16846   0.16956   0.16991
     Eigenvalues ---    0.17646   0.18252   0.19180   0.19823   0.21252
     Eigenvalues ---    0.21790   0.21894   0.21915   0.22175   0.22393
     Eigenvalues ---    0.23392   0.24650   0.25530   0.25851   0.26310
     Eigenvalues ---    0.26771   0.26955   0.27012   0.27570   0.27676
     Eigenvalues ---    0.27815   0.27906   0.28215   0.28406   0.28534
     Eigenvalues ---    0.28622   0.28777   0.28803   0.28855   0.28972
     Eigenvalues ---    0.29238   0.29344   0.29390   0.29593   0.29785
     Eigenvalues ---    0.29862   0.31101   0.31603   0.33195   0.33407
     Eigenvalues ---    0.33544   0.33630   0.33831   0.33852   0.33892
     Eigenvalues ---    0.33923   0.33957   0.33959   0.33993   0.34007
     Eigenvalues ---    0.34017   0.34021   0.34029   0.34045   0.34079
     Eigenvalues ---    0.34087   0.34121   0.34128   0.34135   0.34138
     Eigenvalues ---    0.34140   0.34148   0.34160   0.34197   0.34200
     Eigenvalues ---    0.34213   0.34228   0.34229   0.34233   0.34248
     Eigenvalues ---    0.34257   0.34259   0.34274   0.34288   0.34309
     Eigenvalues ---    0.34345   0.34402   0.34410   0.34455   0.34537
     Eigenvalues ---    0.34650   0.34998   0.35243   0.39554   0.52876
     Eigenvalues ---    0.53428
 En-DIIS/RFO-DIIS/Sim-DIIS IScMMF=       -3 using points:     5    4    3    2
 RFO step:  Lambda=-2.79253423D-05.
 NNeg= 0 NGDIIS= 4 SimSw=  2.50D-01 Rises=F DC= -4.40D-05 SmlDif=  1.00D-05
 NRisDI= 0 DoIntr=F SqrtH=F CThrHd= 10.0 CDAdj=  3.0
 RMS Error=  0.2669841125D-02 NUsed= 4 OKEnD=T EnDIS=F
 InvSVX:  RCond= 9.04D-04 Info=           0 Equed=N FErr=  4.10D-15 BErr=  4.44D-17
 DidBck=T Rises=F RFO-DIIS coefs:    0.67606    0.22528    0.17961   -0.08094
 Iteration  1 RMS(Cart)=  0.01331738 RMS(Int)=  0.00003286
 Iteration  2 RMS(Cart)=  0.00007107 RMS(Int)=  0.00000201
 Iteration  3 RMS(Cart)=  0.00000000 RMS(Int)=  0.00000201
 ITry= 1 IFail=0 DXMaxC= 7.19D-02 DCOld= 1.00D+10 DXMaxT= 8.11D-01 DXLimC= 3.00D+00 Rises=F
 Variable       Old X    -DE/DX   Delta X   Delta X   Delta X     New X
                                 (Linear)    (Quad)   (Total)
    R1        2.92885  -0.00009   0.00045  -0.00077  -0.00032   2.92853
    R2        2.07193  -0.00014   0.00006  -0.00032  -0.00026   2.07168
    R3        2.06710   0.00001   0.00004  -0.00006  -0.00001   2.06709
    R4        2.06986   0.00004   0.00002   0.00002   0.00004   2.06989
    R5        2.95197  -0.00004  -0.00000  -0.00013  -0.00013   2.95184
    R6        2.92490   0.00000  -0.00023   0.00009  -0.00013   2.92477
    R7        2.97730   0.00006  -0.00014  -0.00005  -0.00020   2.97711
    R8        2.90628   0.00010  -0.00006   0.00032   0.00026   2.90655
    R9        2.91188   0.00007   0.00022  -0.00026  -0.00004   2.91184
   R10        2.09072  -0.00005   0.00011  -0.00020  -0.00008   2.09063
   R11        2.94202   0.00008  -0.00030   0.00072   0.00041   2.94243
   R12        2.91627  -0.00011   0.00017  -0.00035  -0.00017   2.91609
   R13        2.08006  -0.00007   0.00019  -0.00039  -0.00020   2.07986
   R14        2.97528   0.00037   0.00027   0.00064   0.00091   2.97619
   R15        2.93041   0.00022   0.00028   0.00001   0.00029   2.93070
   R16        2.08830  -0.00008   0.00013  -0.00038  -0.00024   2.08806
   R17        2.94330  -0.00008   0.00025  -0.00049  -0.00024   2.94306
   R18        2.91206  -0.00030   0.00021  -0.00112  -0.00091   2.91115
   R19        2.96070   0.00007   0.00029  -0.00014   0.00015   2.96085
   R20        2.06739   0.00005   0.00003   0.00000   0.00004   2.06743
   R21        2.06986   0.00004   0.00004  -0.00001   0.00003   2.06989
   R22        2.07036  -0.00006  -0.00008  -0.00006  -0.00015   2.07021
   R23        2.54262   0.00009  -0.00029   0.00049   0.00020   2.54282
   R24        2.87496   0.00003  -0.00052   0.00077   0.00024   2.87521
   R25        2.84486   0.00002   0.00001  -0.00016  -0.00015   2.84470
   R26        2.06201  -0.00004   0.00009  -0.00021  -0.00011   2.06190
   R27        2.07795   0.00001   0.00002  -0.00003  -0.00001   2.07793
   R28        2.08730  -0.00008   0.00013  -0.00035  -0.00022   2.08708
   R29        2.90445  -0.00002  -0.00006  -0.00003  -0.00008   2.90437
   R30        2.07618   0.00001   0.00011  -0.00023  -0.00013   2.07605
   R31        2.07912  -0.00003   0.00026  -0.00047  -0.00021   2.07891
   R32        2.77637   0.00035  -0.00098   0.00199   0.00101   2.77738
   R33        2.87987  -0.00014  -0.00010   0.00004  -0.00006   2.87982
   R34        2.08159  -0.00007   0.00036  -0.00075  -0.00039   2.08120
   R35        1.84908   0.00005  -0.00018   0.00028   0.00010   1.84918
   R36        2.91175  -0.00007  -0.00043   0.00038  -0.00005   2.91170
   R37        2.07204   0.00005   0.00004  -0.00005  -0.00000   2.07203
   R38        2.07408   0.00006   0.00014  -0.00014  -0.00001   2.07407
   R39        2.07236  -0.00003  -0.00007   0.00003  -0.00005   2.07232
   R40        2.07970  -0.00001   0.00005  -0.00011  -0.00007   2.07964
   R41        2.92641  -0.00007  -0.00026  -0.00015  -0.00041   2.92600
   R42        2.07395   0.00002   0.00002  -0.00002  -0.00001   2.07394
   R43        2.07212  -0.00005  -0.00009  -0.00001  -0.00010   2.07203
   R44        2.08109  -0.00001   0.00011  -0.00020  -0.00009   2.08100
   R45        2.07043   0.00003  -0.00001   0.00010   0.00009   2.07052
   R46        2.94517   0.00003  -0.00007  -0.00004  -0.00012   2.94506
   R47        2.07592  -0.00001   0.00009  -0.00014  -0.00006   2.07586
   R48        2.07064   0.00003   0.00003  -0.00004  -0.00000   2.07064
   R49        2.97370  -0.00011   0.00022  -0.00071  -0.00049   2.97321
   R50        2.07485   0.00002   0.00002   0.00000   0.00002   2.07487
   R51        2.07012   0.00004  -0.00003   0.00007   0.00004   2.07016
   R52        2.94147  -0.00007  -0.00002  -0.00017  -0.00019   2.94128
   R53        2.08666  -0.00010   0.00021  -0.00044  -0.00024   2.08643
   R54        2.94134  -0.00028   0.00001  -0.00045  -0.00044   2.94090
   R55        2.91604   0.00003   0.00002  -0.00017  -0.00015   2.91589
   R56        2.08087  -0.00006   0.00018  -0.00035  -0.00017   2.08070
   R57        2.92296  -0.00004  -0.00024   0.00016  -0.00008   2.92288
   R58        2.07193   0.00022   0.00006   0.00014   0.00019   2.07212
   R59        2.08280  -0.00008   0.00016  -0.00038  -0.00022   2.08258
   R60        2.91997  -0.00001  -0.00040   0.00045   0.00004   2.92002
   R61        2.07714   0.00002   0.00011  -0.00018  -0.00006   2.07708
   R62        2.07560   0.00007   0.00003   0.00003   0.00006   2.07566
   R63        2.92779  -0.00011  -0.00005  -0.00013  -0.00018   2.92761
   R64        2.08239  -0.00006   0.00017  -0.00037  -0.00020   2.08220
   R65        2.07881   0.00001   0.00010  -0.00015  -0.00006   2.07876
   R66        2.91447  -0.00000  -0.00008   0.00001  -0.00007   2.91440
   R67        2.91560   0.00009  -0.00024   0.00034   0.00010   2.91570
   R68        2.08153  -0.00009   0.00024  -0.00049  -0.00025   2.08127
   R69        2.07361  -0.00001   0.00009  -0.00017  -0.00008   2.07353
   R70        2.07093   0.00002   0.00001  -0.00003  -0.00002   2.07092
   R71        2.07714  -0.00007   0.00014  -0.00032  -0.00017   2.07696
   R72        2.07663  -0.00005   0.00013  -0.00027  -0.00014   2.07650
   R73        2.07378   0.00001   0.00002  -0.00005  -0.00003   2.07375
   R74        2.07343   0.00001   0.00003  -0.00007  -0.00004   2.07338
   R75        2.06564  -0.00006   0.00006  -0.00017  -0.00011   2.06553
   R76        2.07642  -0.00007   0.00007  -0.00019  -0.00012   2.07629
   R77        2.06967   0.00008   0.00003   0.00004   0.00008   2.06975
    A1        1.92931   0.00007   0.00004   0.00020   0.00023   1.92954
    A2        1.95717   0.00004  -0.00003   0.00012   0.00009   1.95725
    A3        1.94934   0.00002  -0.00002   0.00004   0.00002   1.94936
    A4        1.87407  -0.00006   0.00003  -0.00026  -0.00022   1.87384
    A5        1.87586  -0.00004  -0.00004   0.00001  -0.00002   1.87584
    A6        1.87426  -0.00004   0.00003  -0.00014  -0.00011   1.87415
    A7        1.96230  -0.00008  -0.00025  -0.00003  -0.00028   1.96201
    A8        1.93533   0.00002   0.00040  -0.00037   0.00003   1.93535
    A9        1.92346   0.00006   0.00025   0.00007   0.00032   1.92378
   A10        1.85487   0.00006  -0.00006   0.00077   0.00071   1.85558
   A11        1.74575  -0.00001  -0.00040  -0.00006  -0.00046   1.74530
   A12        2.03386  -0.00006  -0.00006  -0.00030  -0.00036   2.03349
   A13        2.01104   0.00000   0.00055  -0.00047   0.00008   2.01112
   A14        1.82130  -0.00006   0.00019  -0.00107  -0.00087   1.82042
   A15        1.83446   0.00004  -0.00083   0.00153   0.00069   1.83515
   A16        2.07241   0.00005  -0.00044   0.00076   0.00031   2.07273
   A17        1.84704  -0.00004   0.00004  -0.00009  -0.00005   1.84699
   A18        1.85945   0.00001   0.00042  -0.00050  -0.00008   1.85937
   A19        1.91372   0.00003  -0.00005   0.00042   0.00037   1.91410
   A20        1.93432  -0.00000  -0.00071   0.00089   0.00017   1.93449
   A21        1.90743   0.00002   0.00034  -0.00020   0.00015   1.90757
   A22        1.91590  -0.00001  -0.00013   0.00033   0.00019   1.91609
   A23        1.90630  -0.00003   0.00006  -0.00051  -0.00045   1.90585
   A24        1.88577  -0.00001   0.00051  -0.00097  -0.00045   1.88531
   A25        1.96439  -0.00004  -0.00050   0.00126   0.00077   1.96516
   A26        1.95440  -0.00011   0.00011  -0.00035  -0.00024   1.95416
   A27        1.84387   0.00002  -0.00027  -0.00067  -0.00094   1.84293
   A28        1.97636   0.00022   0.00064   0.00063   0.00127   1.97763
   A29        1.84540  -0.00003  -0.00044   0.00047   0.00003   1.84544
   A30        1.86796  -0.00007   0.00040  -0.00156  -0.00117   1.86680
   A31        1.94819   0.00011   0.00078   0.00015   0.00094   1.94913
   A32        1.91985   0.00003  -0.00066   0.00125   0.00059   1.92043
   A33        1.89328  -0.00003   0.00035  -0.00006   0.00029   1.89357
   A34        1.90091  -0.00012  -0.00052  -0.00043  -0.00095   1.89996
   A35        1.91095  -0.00000   0.00014  -0.00025  -0.00012   1.91083
   A36        1.88978   0.00001  -0.00009  -0.00070  -0.00080   1.88898
   A37        1.94240   0.00006  -0.00045   0.00071   0.00026   1.94266
   A38        1.93692   0.00004  -0.00014   0.00034   0.00020   1.93712
   A39        1.94089   0.00010   0.00008   0.00023   0.00031   1.94120
   A40        1.87495  -0.00007   0.00017  -0.00053  -0.00036   1.87459
   A41        1.87327  -0.00010   0.00015  -0.00059  -0.00044   1.87282
   A42        1.89267  -0.00005   0.00022  -0.00023  -0.00001   1.89266
   A43        2.14732  -0.00000   0.00021  -0.00015   0.00007   2.14738
   A44        2.03298  -0.00003   0.00006  -0.00047  -0.00042   2.03256
   A45        2.10289   0.00003  -0.00028   0.00062   0.00035   2.10324
   A46        2.18397   0.00003  -0.00011   0.00027   0.00015   2.18412
   A47        2.07120   0.00001  -0.00008   0.00012   0.00004   2.07123
   A48        2.02801  -0.00004   0.00020  -0.00040  -0.00020   2.02781
   A49        1.97309   0.00005  -0.00005   0.00045   0.00040   1.97349
   A50        1.91844  -0.00007   0.00053  -0.00118  -0.00065   1.91779
   A51        1.90498   0.00003  -0.00027   0.00050   0.00023   1.90521
   A52        1.91131   0.00004   0.00010  -0.00003   0.00007   1.91138
   A53        1.91099  -0.00007  -0.00000  -0.00039  -0.00040   1.91059
   A54        1.84031   0.00004  -0.00034   0.00068   0.00034   1.84065
   A55        1.95552   0.00004  -0.00084   0.00100   0.00016   1.95569
   A56        1.91063  -0.00001  -0.00008   0.00021   0.00014   1.91077
   A57        1.93542  -0.00002  -0.00007   0.00002  -0.00006   1.93536
   A58        1.92603  -0.00002   0.00046  -0.00064  -0.00018   1.92585
   A59        1.86760   0.00006  -0.00005   0.00060   0.00054   1.86814
   A60        1.86629  -0.00005   0.00067  -0.00130  -0.00063   1.86565
   A61        1.94444  -0.00001  -0.00066   0.00076   0.00009   1.94454
   A62        1.93043  -0.00004   0.00015  -0.00013  -0.00000   1.93043
   A63        1.91231   0.00003   0.00073  -0.00069   0.00004   1.91235
   A64        1.86146   0.00005  -0.00188   0.00280   0.00092   1.86238
   A65        1.89908  -0.00001   0.00036  -0.00078  -0.00041   1.89866
   A66        1.91527  -0.00003   0.00132  -0.00194  -0.00063   1.91464
   A67        1.93973  -0.00005  -0.00101   0.00059  -0.00041   1.93932
   A68        1.93301   0.00001  -0.00102   0.00148   0.00045   1.93346
   A69        1.91066  -0.00001   0.00040  -0.00067  -0.00027   1.91040
   A70        1.89195   0.00002   0.00055  -0.00053   0.00001   1.89197
   A71        1.92198   0.00004  -0.00012   0.00039   0.00027   1.92226
   A72        1.94050  -0.00001  -0.00021   0.00029   0.00008   1.94058
   A73        1.86414  -0.00005   0.00048  -0.00108  -0.00059   1.86354
   A74        2.00175   0.00000   0.00017  -0.00037  -0.00020   2.00155
   A75        1.90661   0.00005   0.00017  -0.00012   0.00006   1.90667
   A76        1.88584   0.00000   0.00003   0.00026   0.00030   1.88614
   A77        1.90355  -0.00008  -0.00054   0.00045  -0.00009   1.90346
   A78        1.89806   0.00004  -0.00015   0.00031   0.00016   1.89822
   A79        1.86305  -0.00002   0.00034  -0.00056  -0.00022   1.86283
   A80        1.99249   0.00010  -0.00012  -0.00003  -0.00016   1.99234
   A81        1.91171   0.00001   0.00020   0.00013   0.00032   1.91204
   A82        1.91523   0.00003   0.00025   0.00007   0.00032   1.91555
   A83        1.89200  -0.00008  -0.00013  -0.00010  -0.00023   1.89177
   A84        1.89422  -0.00007  -0.00051   0.00034  -0.00018   1.89405
   A85        1.85288   0.00001   0.00035  -0.00044  -0.00009   1.85278
   A86        1.95085  -0.00006  -0.00058   0.00006  -0.00052   1.95033
   A87        1.89437   0.00004  -0.00000   0.00049   0.00048   1.89485
   A88        1.94919   0.00003  -0.00003   0.00002  -0.00001   1.94918
   A89        1.91153   0.00003   0.00002   0.00027   0.00029   1.91182
   A90        1.89297  -0.00000   0.00021  -0.00015   0.00006   1.89304
   A91        1.86270  -0.00004   0.00043  -0.00072  -0.00029   1.86241
   A92        1.81105   0.00003  -0.00034   0.00055   0.00021   1.81126
   A93        1.93085   0.00005  -0.00003   0.00037   0.00034   1.93120
   A94        1.96106  -0.00004   0.00024  -0.00050  -0.00025   1.96081
   A95        1.94010  -0.00000  -0.00009   0.00005  -0.00004   1.94006
   A96        1.95590  -0.00001   0.00004  -0.00009  -0.00004   1.95586
   A97        1.86644  -0.00002   0.00016  -0.00036  -0.00020   1.86624
   A98        1.87204  -0.00004   0.00001  -0.00041  -0.00040   1.87164
   A99        1.93418   0.00007   0.00013   0.00024   0.00037   1.93455
   A100       1.94014   0.00001  -0.00026   0.00024  -0.00002   1.94012
   A101       1.92140   0.00002  -0.00033   0.00099   0.00066   1.92206
   A102       1.93600  -0.00002   0.00036  -0.00085  -0.00049   1.93551
   A103       1.86095  -0.00004   0.00008  -0.00019  -0.00011   1.86083
   A104       1.80275   0.00003   0.00006  -0.00056  -0.00050   1.80225
   A105       2.08525   0.00024  -0.00000   0.00059   0.00059   2.08584
   A106       1.85251  -0.00001  -0.00013   0.00071   0.00058   1.85310
   A107       1.96080  -0.00025  -0.00018   0.00030   0.00013   1.96093
   A108       1.88816   0.00002   0.00008  -0.00065  -0.00056   1.88760
   A109       1.86487  -0.00004   0.00017  -0.00048  -0.00031   1.86456
   A110       1.91434  -0.00038  -0.00039  -0.00022  -0.00061   1.91374
   A111       1.97354   0.00043   0.00023   0.00057   0.00080   1.97433
   A112       1.87541  -0.00003   0.00009   0.00008   0.00017   1.87558
   A113       1.92733  -0.00006   0.00004  -0.00066  -0.00061   1.92671
   A114       1.88320   0.00008  -0.00002  -0.00024  -0.00026   1.88294
   A115       1.88699  -0.00005   0.00004   0.00047   0.00051   1.88749
   A116       2.03416  -0.00007  -0.00031   0.00016  -0.00015   2.03401
   A117       1.90320  -0.00001  -0.00016   0.00057   0.00041   1.90361
   A118       1.88601  -0.00003   0.00030  -0.00090  -0.00060   1.88541
   A119       1.89244   0.00008   0.00000   0.00054   0.00054   1.89297
   A120       1.88903   0.00005  -0.00019   0.00020   0.00001   1.88905
   A121       1.85054  -0.00002   0.00043  -0.00067  -0.00024   1.85030
   A122       2.01915   0.00010  -0.00064   0.00113   0.00050   2.01964
   A123       1.88313  -0.00002   0.00019  -0.00027  -0.00008   1.88306
   A124       1.91667  -0.00005  -0.00001  -0.00012  -0.00013   1.91654
   A125       1.90773  -0.00004  -0.00004   0.00007   0.00003   1.90776
   A126       1.88945  -0.00001  -0.00004   0.00004   0.00001   1.88946
   A127       1.83938   0.00000   0.00065  -0.00106  -0.00041   1.83898
   A128       2.02946   0.00005  -0.00069   0.00110   0.00041   2.02987
   A129       1.89158   0.00000  -0.00009   0.00007  -0.00003   1.89155
   A130       1.90711  -0.00003   0.00011  -0.00016  -0.00006   1.90705
   A131       1.88700  -0.00004   0.00030  -0.00059  -0.00029   1.88671
   A132       1.89117   0.00002   0.00003   0.00016   0.00019   1.89136
   A133       1.84927  -0.00000   0.00045  -0.00075  -0.00030   1.84897
   A134       1.96057  -0.00001  -0.00017   0.00027   0.00009   1.96067
   A135       1.92267  -0.00003  -0.00006  -0.00005  -0.00012   1.92255
   A136       1.88921   0.00001  -0.00000   0.00002   0.00001   1.88922
   A137       1.92781   0.00004  -0.00016   0.00031   0.00014   1.92795
   A138       1.88367  -0.00000   0.00008  -0.00004   0.00004   1.88371
   A139       1.87717  -0.00001   0.00036  -0.00054  -0.00019   1.87699
   A140       1.93376   0.00000   0.00007  -0.00016  -0.00010   1.93367
   A141       1.95570   0.00005  -0.00036   0.00058   0.00022   1.95592
   A142       1.92930   0.00003  -0.00009   0.00028   0.00019   1.92949
   A143       1.87896  -0.00005   0.00037  -0.00072  -0.00035   1.87861
   A144       1.88063  -0.00001   0.00003  -0.00004  -0.00000   1.88063
   A145       1.88276  -0.00003  -0.00001   0.00002   0.00001   1.88277
   A146       1.93112   0.00005  -0.00009   0.00033   0.00024   1.93136
   A147       1.94190   0.00006  -0.00030   0.00059   0.00028   1.94218
   A148       1.94047   0.00003  -0.00019   0.00029   0.00011   1.94058
   A149       1.88148  -0.00004   0.00013  -0.00025  -0.00012   1.88136
   A150       1.88138  -0.00003   0.00014  -0.00027  -0.00014   1.88124
   A151       1.88511  -0.00007   0.00035  -0.00075  -0.00041   1.88471
   A152       1.95442   0.00007   0.00023  -0.00020   0.00003   1.95445
   A153       1.93331   0.00005  -0.00025   0.00056   0.00031   1.93362
   A154       1.94073   0.00001  -0.00036   0.00040   0.00004   1.94077
   A155       1.88266  -0.00002  -0.00015   0.00036   0.00021   1.88287
   A156       1.86935  -0.00009   0.00063  -0.00119  -0.00056   1.86879
   A157       1.88013  -0.00004  -0.00007   0.00002  -0.00005   1.88008
    D1       -3.09331  -0.00001  -0.00205   0.00072  -0.00133  -3.09464
    D2       -1.01951   0.00002  -0.00202   0.00141  -0.00061  -1.02012
    D3        1.25873   0.00000  -0.00158   0.00077  -0.00081   1.25792
    D4       -1.00268  -0.00002  -0.00201   0.00061  -0.00140  -1.00408
    D5        1.07112   0.00001  -0.00198   0.00130  -0.00067   1.07045
    D6       -2.93382  -0.00000  -0.00153   0.00066  -0.00088  -2.93469
    D7        1.10214  -0.00003  -0.00202   0.00054  -0.00147   1.10067
    D8       -3.10725   0.00000  -0.00199   0.00124  -0.00075  -3.10799
    D9       -0.82901  -0.00001  -0.00154   0.00059  -0.00095  -0.82995
   D10        1.07299   0.00000   0.00052   0.00096   0.00148   1.07446
   D11       -1.23093  -0.00002   0.00053   0.00122   0.00175  -1.22918
   D12        3.09876  -0.00002   0.00032   0.00160   0.00191   3.10068
   D13       -1.04738  -0.00001   0.00021   0.00093   0.00114  -1.04624
   D14        2.93189  -0.00004   0.00023   0.00119   0.00142   2.93330
   D15        0.97839  -0.00004   0.00001   0.00157   0.00158   0.97997
   D16        3.11328   0.00004   0.00049   0.00099   0.00148   3.11475
   D17        0.80936   0.00001   0.00050   0.00125   0.00175   0.81111
   D18       -1.14413   0.00001   0.00028   0.00163   0.00192  -1.14222
   D19       -1.15566   0.00007   0.00085  -0.00055   0.00030  -1.15536
   D20        3.01744   0.00004   0.00119  -0.00124  -0.00005   3.01739
   D21        0.96870   0.00004   0.00069  -0.00069   0.00001   0.96871
   D22        0.98186   0.00002   0.00074  -0.00032   0.00042   0.98229
   D23       -1.12822  -0.00002   0.00108  -0.00102   0.00007  -1.12815
   D24        3.10623  -0.00001   0.00058  -0.00046   0.00013   3.10636
   D25        2.90858   0.00002   0.00018  -0.00005   0.00013   2.90871
   D26        0.79849  -0.00002   0.00053  -0.00075  -0.00022   0.79827
   D27       -1.25024  -0.00001   0.00003  -0.00019  -0.00016  -1.25041
   D28        1.38318  -0.00012  -0.00075  -0.00234  -0.00309   1.38009
   D29       -0.80911   0.00001  -0.00056  -0.00268  -0.00324  -0.81235
   D30       -2.91532  -0.00009  -0.00068  -0.00302  -0.00370  -2.91902
   D31       -0.68595  -0.00005  -0.00036  -0.00230  -0.00266  -0.68861
   D32       -2.87824   0.00009  -0.00017  -0.00264  -0.00281  -2.88105
   D33        1.29873  -0.00001  -0.00029  -0.00298  -0.00327   1.29546
   D34       -2.67522  -0.00009  -0.00001  -0.00305  -0.00306  -2.67828
   D35        1.41568   0.00005   0.00018  -0.00339  -0.00321   1.41246
   D36       -0.69054  -0.00005   0.00006  -0.00373  -0.00368  -0.69421
   D37        0.99334  -0.00002  -0.00118  -0.00050  -0.00168   0.99165
   D38        3.11116  -0.00001  -0.00184   0.00076  -0.00108   3.11008
   D39       -1.09568  -0.00001  -0.00143  -0.00001  -0.00144  -1.09712
   D40       -3.11150  -0.00005  -0.00077  -0.00183  -0.00261  -3.11410
   D41       -0.99367  -0.00004  -0.00144  -0.00057  -0.00200  -0.99568
   D42        1.08267  -0.00004  -0.00103  -0.00134  -0.00236   1.08031
   D43       -1.02526  -0.00003  -0.00048  -0.00207  -0.00255  -1.02781
   D44        1.09256  -0.00003  -0.00114  -0.00081  -0.00195   1.09062
   D45       -3.11427  -0.00002  -0.00073  -0.00158  -0.00231  -3.11658
   D46       -0.60495  -0.00004  -0.00037   0.00001  -0.00036  -0.60532
   D47        1.47717  -0.00000  -0.00068   0.00056  -0.00012   1.47704
   D48       -2.72142  -0.00002  -0.00034   0.00003  -0.00031  -2.72173
   D49       -2.87288  -0.00003  -0.00096   0.00105   0.00009  -2.87279
   D50       -0.79076   0.00001  -0.00127   0.00160   0.00033  -0.79043
   D51        1.29384  -0.00001  -0.00093   0.00107   0.00014   1.29398
   D52        1.33047  -0.00002  -0.00106   0.00107   0.00002   1.33049
   D53       -2.87059   0.00002  -0.00137   0.00162   0.00026  -2.87034
   D54       -0.78599   0.00000  -0.00103   0.00110   0.00007  -0.78592
   D55       -3.10425  -0.00010   0.00027  -0.00210  -0.00183  -3.10609
   D56       -0.85411   0.00008   0.00082  -0.00046   0.00036  -0.85375
   D57        1.17334  -0.00005   0.00120  -0.00290  -0.00170   1.17164
   D58        1.05006  -0.00011   0.00127  -0.00368  -0.00241   1.04764
   D59       -2.98299   0.00007   0.00183  -0.00205  -0.00022  -2.98320
   D60       -0.95553  -0.00006   0.00220  -0.00448  -0.00228  -0.95781
   D61       -1.01455  -0.00007   0.00069  -0.00240  -0.00171  -1.01626
   D62        1.23559   0.00011   0.00125  -0.00076   0.00049   1.23608
   D63       -3.02014  -0.00002   0.00162  -0.00320  -0.00158  -3.02171
   D64       -2.85571   0.00001   0.00085  -0.00108  -0.00023  -2.85594
   D65        1.28597  -0.00001   0.00037  -0.00049  -0.00012   1.28585
   D66       -0.72445  -0.00003   0.00063  -0.00093  -0.00030  -0.72475
   D67       -0.73917   0.00004   0.00024   0.00024   0.00048  -0.73869
   D68       -2.88067   0.00002  -0.00025   0.00084   0.00059  -2.88008
   D69        1.39209   0.00000   0.00001   0.00040   0.00041   1.39250
   D70        1.33811  -0.00001   0.00054  -0.00076  -0.00023   1.33788
   D71       -0.80339  -0.00003   0.00005  -0.00017  -0.00012  -0.80351
   D72       -2.81381  -0.00005   0.00031  -0.00061  -0.00030  -2.81411
   D73        1.32855  -0.00003  -0.00263   0.00500   0.00238   1.33093
   D74       -0.78364   0.00003  -0.00203   0.00459   0.00256  -0.78108
   D75       -2.84767   0.00002  -0.00174   0.00475   0.00301  -2.84466
   D76       -0.91013  -0.00004  -0.00291   0.00385   0.00094  -0.90919
   D77       -3.02232   0.00002  -0.00232   0.00343   0.00112  -3.02121
   D78        1.19683   0.00001  -0.00202   0.00359   0.00157   1.19840
   D79       -2.94997  -0.00005  -0.00345   0.00511   0.00166  -2.94831
   D80        1.22103   0.00001  -0.00286   0.00470   0.00184   1.22286
   D81       -0.84301   0.00000  -0.00257   0.00486   0.00229  -0.84071
   D82        0.86958  -0.00001   0.00067   0.00045   0.00111   0.87069
   D83        2.99462  -0.00004   0.00056   0.00039   0.00094   2.99557
   D84       -1.26100  -0.00001   0.00124  -0.00003   0.00121  -1.25979
   D85        3.11342   0.00003   0.00063   0.00243   0.00306   3.11647
   D86       -1.04472  -0.00000   0.00052   0.00237   0.00289  -1.04183
   D87        0.98284   0.00003   0.00120   0.00195   0.00315   0.98599
   D88       -1.14324   0.00007   0.00069   0.00237   0.00306  -1.14018
   D89        0.98181   0.00003   0.00058   0.00231   0.00289   0.98470
   D90        3.00937   0.00007   0.00126   0.00189   0.00315   3.01253
   D91       -2.99823   0.00002   0.00139   0.00444   0.00583  -2.99240
   D92       -0.91114   0.00000   0.00122   0.00447   0.00568  -0.90546
   D93        1.19734   0.00004   0.00145   0.00456   0.00601   1.20335
   D94       -0.87505   0.00005   0.00071   0.00582   0.00653  -0.86852
   D95        1.21204   0.00003   0.00053   0.00585   0.00638   1.21842
   D96       -2.96266   0.00007   0.00077   0.00594   0.00671  -2.95595
   D97        1.18835  -0.00002   0.00037   0.00458   0.00494   1.19329
   D98       -3.00776  -0.00003   0.00019   0.00461   0.00480  -3.00296
   D99       -0.89927   0.00000   0.00043   0.00470   0.00512  -0.89414
   D100       0.24735   0.00004   0.00162  -0.00303  -0.00142   0.24593
   D101      -2.89508   0.00000   0.00028  -0.00314  -0.00286  -2.89793
   D102      -1.89298  -0.00004   0.00141  -0.00375  -0.00234  -1.89532
   D103       1.24778  -0.00008   0.00007  -0.00385  -0.00378   1.24401
   D104       2.31353   0.00002   0.00159  -0.00280  -0.00120   2.31233
   D105      -0.82889  -0.00001   0.00026  -0.00291  -0.00264  -0.83153
   D106       2.94307   0.00004  -0.00085   0.00322   0.00236   2.94543
   D107      -1.19738  -0.00002  -0.00131   0.00345   0.00214  -1.19524
   D108       0.82313  -0.00001  -0.00079   0.00286   0.00207   0.82520
   D109      -1.21025   0.00016   0.00041   0.00321   0.00362  -1.20663
   D110       0.93249   0.00010  -0.00004   0.00344   0.00340   0.93589
   D111       2.95300   0.00011   0.00047   0.00286   0.00333   2.95632
   D112       0.86006   0.00002  -0.00020   0.00215   0.00195   0.86201
   D113       3.00280  -0.00004  -0.00065   0.00238   0.00173   3.00452
   D114      -1.25988  -0.00004  -0.00014   0.00179   0.00165  -1.25822
   D115       0.03372  -0.00004  -0.00020  -0.00016  -0.00036   0.03337
   D116      -3.11379  -0.00006  -0.00014  -0.00127  -0.00141  -3.11519
   D117      -3.10701  -0.00000   0.00118  -0.00005   0.00114  -3.10587
   D118       0.02867  -0.00003   0.00125  -0.00116   0.00009   0.02876
   D119       0.90685   0.00004   0.00059   0.00095   0.00154   0.90838
   D120       3.04946   0.00003   0.00055   0.00097   0.00151   3.05097
   D121      -1.17866  -0.00005   0.00127  -0.00049   0.00079  -1.17788
   D122      -2.23555   0.00001  -0.00071   0.00085   0.00013  -2.23542
   D123      -0.09294   0.00000  -0.00075   0.00086   0.00011  -0.09283
   D124       1.96212  -0.00008  -0.00002  -0.00059  -0.00062   1.96151
   D125       0.22316  -0.00001  -0.00088   0.00181   0.00093   0.22409
   D126       2.36862  -0.00004  -0.00016   0.00058   0.00042   2.36904
   D127      -1.90474  -0.00002  -0.00051   0.00115   0.00064  -1.90409
   D128      -2.91265   0.00002  -0.00095   0.00290   0.00195  -2.91070
   D129      -0.76719  -0.00002  -0.00022   0.00167   0.00145  -0.76574
   D130       1.24264   0.00000  -0.00058   0.00224   0.00167   1.24431
   D131      -3.01983  -0.00003   0.00079  -0.00097  -0.00018  -3.02002
   D132      -0.95262  -0.00000  -0.00191   0.00293   0.00102  -0.95160
   D133       1.16098  -0.00004   0.00027  -0.00002   0.00025   1.16123
   D134       1.12949  -0.00003   0.00114  -0.00148  -0.00034   1.12915
   D135      -3.08648   0.00000  -0.00157   0.00242   0.00086  -3.08562
   D136      -0.97288  -0.00004   0.00062  -0.00053   0.00009  -0.97279
   D137      -0.89497   0.00000   0.00013   0.00006   0.00020  -0.89477
   D138       1.17225   0.00004  -0.00257   0.00397   0.00140   1.17365
   D139      -2.99734  -0.00000  -0.00038   0.00102   0.00063  -2.99671
   D140      -1.06802  -0.00003  -0.00057   0.00020  -0.00036  -1.06838
   D141       3.10704  -0.00000   0.00087  -0.00186  -0.00099   3.10605
   D142       1.04212   0.00000   0.00017  -0.00070  -0.00053   1.04159
   D143       0.98718  -0.00003   0.00178  -0.00343  -0.00164   0.98554
   D144       3.10973   0.00002   0.00124  -0.00243  -0.00119   3.10855
   D145      -1.14611  -0.00003   0.00233  -0.00437  -0.00203  -1.14814
   D146       3.10424  -0.00003  -0.00013  -0.00084  -0.00096   3.10329
   D147      -1.05638   0.00002  -0.00067   0.00016  -0.00050  -1.05689
   D148       0.97096  -0.00004   0.00042  -0.00178  -0.00135   0.96961
   D149      -1.12467  -0.00002  -0.00005  -0.00121  -0.00127  -1.12594
   D150       0.99789   0.00003  -0.00060  -0.00021  -0.00081   0.99708
   D151       3.02523  -0.00003   0.00050  -0.00215  -0.00166   3.02357
   D152      -0.97676   0.00001  -0.00053   0.00050  -0.00003  -0.97679
   D153      -3.12115   0.00000  -0.00046   0.00057   0.00011  -3.12104
   D154       1.13648   0.00004  -0.00049   0.00082   0.00034   1.13682
   D155      -3.09265  -0.00001  -0.00028   0.00011  -0.00017  -3.09282
   D156       1.04615  -0.00002  -0.00021   0.00018  -0.00003   1.04612
   D157      -0.97941   0.00002  -0.00023   0.00043   0.00020  -0.97921
   D158       1.12791   0.00003  -0.00068   0.00101   0.00034   1.12825
   D159      -1.01648   0.00003  -0.00061   0.00109   0.00048  -1.01600
   D160      -3.04203   0.00007  -0.00063   0.00134   0.00071  -3.04132
   D161      -0.95489  -0.00002  -0.00131  -0.00002  -0.00133  -0.95621
   D162       1.14519   0.00001  -0.00168   0.00081  -0.00086   1.14432
   D163      -3.11133  -0.00002  -0.00104   0.00002  -0.00102  -3.11234
   D164      -3.09075  -0.00004  -0.00138  -0.00008  -0.00147  -3.09222
   D165      -0.99068  -0.00000  -0.00175   0.00075  -0.00100  -0.99168
   D166       1.03599  -0.00003  -0.00111  -0.00004  -0.00116   1.03484
   D167       1.18717   0.00003  -0.00146   0.00031  -0.00114   1.18602
   D168      -2.99594   0.00007  -0.00182   0.00114  -0.00068  -2.99662
   D169      -0.96927   0.00004  -0.00118   0.00035  -0.00083  -0.97011
   D170       0.15970   0.00002   0.00002  -0.00116  -0.00115   0.15856
   D171       2.25749   0.00006  -0.00030  -0.00007  -0.00037   2.25712
   D172      -1.95946   0.00006  -0.00028  -0.00000  -0.00028  -1.95975
   D173      -1.91608  -0.00005   0.00029  -0.00195  -0.00166  -1.91773
   D174       0.18171  -0.00001  -0.00002  -0.00086  -0.00088   0.18083
   D175       2.24794  -0.00001  -0.00000  -0.00079  -0.00079   2.24715
   D176       2.27963  -0.00002   0.00012  -0.00147  -0.00134   2.27829
   D177      -1.90577   0.00002  -0.00019  -0.00038  -0.00057  -1.90634
   D178       0.16046   0.00003  -0.00017  -0.00031  -0.00048   0.15999
   D179       0.33549  -0.00000   0.00027   0.00206   0.00233   0.33782
   D180       2.60567   0.00017   0.00020   0.00259   0.00279   2.60846
   D181      -1.62322  -0.00001   0.00036   0.00176   0.00212  -1.62110
   D182      -1.77041  -0.00007   0.00030   0.00145   0.00174  -1.76867
   D183       0.49977   0.00010   0.00022   0.00198   0.00220   0.50197
   D184       2.55406  -0.00009   0.00038   0.00115   0.00153   2.55559
   D185       2.45725  -0.00003   0.00018   0.00158   0.00176   2.45901
   D186      -1.55576   0.00014   0.00011   0.00212   0.00223  -1.55353
   D187       0.49854  -0.00004   0.00027   0.00129   0.00156   0.50009
   D188      -3.13418  -0.00016  -0.00748  -0.00618  -0.01367   3.13534
   D189      -0.97463  -0.00021  -0.00756  -0.00680  -0.01435  -0.98898
   D190       1.10624  -0.00004  -0.00731  -0.00582  -0.01313   1.09311
   D191       1.03388  -0.00018  -0.00741  -0.00615  -0.01356   1.02032
   D192      -3.08975  -0.00024  -0.00748  -0.00677  -0.01425  -3.10400
   D193      -1.00888  -0.00006  -0.00723  -0.00579  -0.01303  -1.02191
   D194      -1.03418  -0.00004  -0.00752  -0.00523  -0.01275  -1.04692
   D195       1.12537  -0.00009  -0.00759  -0.00585  -0.01343   1.11194
   D196      -3.07694   0.00008  -0.00734  -0.00487  -0.01221  -3.08916
   D197      -3.06181   0.00013   0.00163  -0.00458  -0.00295  -3.06476
   D198      -0.91303   0.00018   0.00127  -0.00327  -0.00200  -0.91504
   D199       1.09099   0.00013   0.00186  -0.00424  -0.00238   1.08861
   D200       1.03499  -0.00011   0.00158  -0.00468  -0.00310   1.03189
   D201      -3.09941  -0.00006   0.00122  -0.00338  -0.00216  -3.10157
   D202      -1.09539  -0.00011   0.00181  -0.00434  -0.00254  -1.09792
   D203      -1.02394  -0.00006   0.00152  -0.00474  -0.00322  -1.02716
   D204       1.12484  -0.00001   0.00116  -0.00344  -0.00227   1.12257
   D205       3.12887  -0.00006   0.00175  -0.00440  -0.00265   3.12621
   D206       1.11769   0.00017   0.00132  -0.00381  -0.00249   1.11520
   D207      -0.98477   0.00011   0.00153  -0.00453  -0.00299  -0.98776
   D208      -3.07488   0.00012   0.00203  -0.00519  -0.00316  -3.07804
   D209      -3.01310  -0.00006   0.00101  -0.00419  -0.00317  -3.01627
   D210       1.16763  -0.00011   0.00123  -0.00490  -0.00367   1.16396
   D211      -0.92248  -0.00011   0.00173  -0.00557  -0.00384  -0.92632
   D212      -0.95649  -0.00002   0.00104  -0.00457  -0.00353  -0.96002
   D213      -3.05894  -0.00008   0.00125  -0.00528  -0.00403  -3.06297
   D214       1.13413  -0.00008   0.00175  -0.00595  -0.00420   1.12993
   D215       1.01824   0.00002   0.00311  -0.00417  -0.00107   1.01717
   D216      -3.12272   0.00003   0.00277  -0.00351  -0.00075  -3.12347
   D217      -1.12642  -0.00001   0.00364  -0.00497  -0.00134  -1.12776
   D218      -1.13611   0.00001   0.00354  -0.00549  -0.00195  -1.13805
   D219       1.00612   0.00002   0.00320  -0.00483  -0.00162   1.00449
   D220       3.00242  -0.00002   0.00408  -0.00629  -0.00221   3.00020
   D221      -3.13616  -0.00003   0.00314  -0.00509  -0.00195  -3.13811
   D222      -0.99393  -0.00002   0.00280  -0.00443  -0.00163  -0.99556
   D223       1.00237  -0.00006   0.00367  -0.00589  -0.00222   1.00015
   D224       1.04047   0.00002   0.00279  -0.00489  -0.00210   1.03836
   D225      -3.11390  -0.00000   0.00263  -0.00485  -0.00222  -3.11612
   D226      -1.10634  -0.00002   0.00317  -0.00579  -0.00262  -1.10896
   D227      -1.08869  -0.00001   0.00302  -0.00540  -0.00238  -1.09107
   D228       1.04012  -0.00003   0.00286  -0.00536  -0.00249   1.03763
   D229       3.04768  -0.00005   0.00340  -0.00629  -0.00290   3.04479
   D230      -3.08375   0.00001   0.00228  -0.00420  -0.00192  -3.08567
   D231      -0.95494  -0.00001   0.00213  -0.00416  -0.00203  -0.95697
   D232       1.05262  -0.00002   0.00266  -0.00510  -0.00244   1.05019
   D233       1.06042  -0.00001   0.00195  -0.00354  -0.00159   1.05882
   D234      -3.06565   0.00001   0.00156  -0.00299  -0.00142  -3.06708
   D235      -1.01763  -0.00001   0.00195  -0.00366  -0.00170  -1.01933
   D236      -1.07081  -0.00002   0.00231  -0.00392  -0.00161  -1.07242
   D237       1.08631   0.00001   0.00193  -0.00337  -0.00145   1.08486
   D238       3.13433  -0.00002   0.00232  -0.00404  -0.00173   3.13260
   D239      -3.06767  -0.00000   0.00161  -0.00283  -0.00121  -3.06888
   D240      -0.91055   0.00002   0.00123  -0.00228  -0.00104  -0.91160
   D241       1.13747  -0.00000   0.00162  -0.00295  -0.00132   1.13614
   D242       3.11331   0.00001  -0.00048   0.00190   0.00141   3.11472
   D243      -1.07095  -0.00002  -0.00020   0.00126   0.00105  -1.06990
   D244       1.02973   0.00000  -0.00051   0.00186   0.00135   1.03108
   D245       0.95907   0.00002  -0.00016   0.00154   0.00139   0.96045
   D246       3.05799  -0.00000   0.00013   0.00090   0.00103   3.05902
   D247      -1.12451   0.00001  -0.00018   0.00151   0.00133  -1.12318
   D248      -1.08859   0.00002  -0.00054   0.00205   0.00151  -1.08708
   D249       1.01033  -0.00001  -0.00026   0.00141   0.00115   1.01148
   D250       3.11102   0.00001  -0.00057   0.00202   0.00145   3.11247
   D251      -1.09190  -0.00000  -0.00031   0.00095   0.00064  -1.09126
   D252       0.99923   0.00002  -0.00041   0.00124   0.00083   1.00006
   D253       3.10123  -0.00001  -0.00030   0.00088   0.00058   3.10181
   D254       1.08415  -0.00001  -0.00070   0.00148   0.00078   1.08493
   D255      -3.10790   0.00001  -0.00079   0.00177   0.00097  -3.10693
   D256      -1.00591  -0.00001  -0.00068   0.00141   0.00072  -1.00519
   D257       3.13582   0.00001  -0.00048   0.00127   0.00079   3.13661
   D258      -1.05624   0.00002  -0.00058   0.00157   0.00099  -1.05525
   D259       1.04576  -0.00000  -0.00047   0.00120   0.00074   1.04649
         Item               Value     Threshold  Converged?
 Maximum Force            0.000428     0.000450     YES
 RMS     Force            0.000069     0.000300     YES
 Maximum Displacement     0.071865     0.001800     NO 
 RMS     Displacement     0.013318     0.001200     NO 
 Predicted change in Energy=-1.381722D-05
 Lowest energy point so far.  Saving SCF results.
 GradGradGradGradGradGradGradGradGradGradGradGradGradGradGradGradGradGrad

 Leave Link  103 at Mon Jul 28 19:01:10 2025, MaxMem=  1073741824 cpu:               1.2 elap:               0.2
 (Enter /app/gaussian/g16/l202.exe)
 Stoichiometry    C27H46O
 Framework group  C1[X(C27H46O)]
 Deg. of freedom   216
 Full point group                 C1      NOp   1
 RotChk:  IX=0 Diff= 4.25D-03
 Largest Abelian subgroup         C1      NOp   1
 Largest concise Abelian subgroup C1      NOp   1
                         Standard orientation:                         
 ---------------------------------------------------------------------
 Center     Atomic      Atomic             Coordinates (Angstroms)
 Number     Number       Type             X           Y           Z
 ---------------------------------------------------------------------
      1          6           0       -0.994990   -0.306190    1.461026
      2          6           0       -0.734323   -0.405514   -0.063375
      3          6           0        0.100434    0.798741   -0.604622
      4          6           0        1.509320    0.942220   -0.004508
      5          6           0        2.313581   -0.370904   -0.235453
      6          6           0        3.754119   -0.317710    0.398925
      7          6           0        3.709182   -0.502761    1.944637
      8          6           0        4.422398    1.032766    0.078293
      9          6           0        3.743210    2.092961   -0.396397
     10          6           0        2.258287    2.132134   -0.640436
     11          6           0        5.920313    1.124288    0.328929
     12          6           0        6.690020   -0.019367   -0.350585
     13          8           0        8.108699   -0.013811    0.033369
     14          6           0        6.126881   -1.370663    0.072794
     15          6           0        4.620375   -1.456927   -0.238792
     16          6           0        1.505384   -1.627113    0.181592
     17          6           0        0.072730   -1.681690   -0.403203
     18          6           0       -0.864764    1.997237   -0.525219
     19          6           0       -2.257311    1.374022   -0.843344
     20          6           0       -2.075765   -0.188729   -0.860541
     21          6           0       -3.363649   -0.939223   -0.412576
     22          6           0       -4.546379   -0.552837   -1.347342
     23          6           0       -5.934016   -1.129205   -0.980455
     24          6           0       -6.460060   -0.766511    0.426454
     25          6           0       -6.631892    0.743555    0.726892
     26          6           0       -7.637834    1.420114   -0.226439
     27          6           0       -7.058915    0.948198    2.195357
     28          6           0       -3.188784   -2.471775   -0.372175
     29          1           0       -1.540651   -1.188090    1.816480
     30          1           0       -0.065887   -0.243930    2.034973
     31          1           0       -1.594686    0.575199    1.712597
     32          1           0        0.250735    0.586234   -1.679882
     33          1           0        1.426637    1.130549    1.076716
     34          1           0        2.469249   -0.435678   -1.327465
     35          1           0        4.688090   -0.315862    2.395996
     36          1           0        2.998781    0.193866    2.402680
     37          1           0        3.415916   -1.523476    2.213475
     38          1           0        4.292652    3.008047   -0.622774
     39          1           0        1.848304    3.078685   -0.259562
     40          1           0        2.064090    2.143442   -1.727607
     41          1           0        6.291855    2.096518   -0.022701
     42          1           0        6.142159    1.067422    1.404937
     43          1           0        6.618240    0.086516   -1.444452
     44          1           0        8.544517    0.818707   -0.239629
     45          1           0        6.666470   -2.170602   -0.447969
     46          1           0        6.318517   -1.505304    1.145068
     47          1           0        4.240679   -2.429886    0.095517
     48          1           0        4.482003   -1.420746   -1.329955
     49          1           0        2.042618   -2.530768   -0.133452
     50          1           0        1.437522   -1.678023    1.274776
     51          1           0        0.125610   -1.781814   -1.498585
     52          1           0       -0.421114   -2.584848   -0.027809
     53          1           0       -0.849259    2.441211    0.479442
     54          1           0       -0.599404    2.793241   -1.229913
     55          1           0       -2.996197    1.660184   -0.083273
     56          1           0       -2.641163    1.733399   -1.804378
     57          1           0       -1.869679   -0.499639   -1.899711
     58          1           0       -3.609805   -0.595263    0.604004
     59          1           0       -4.625174    0.539921   -1.392373
     60          1           0       -4.295375   -0.881912   -2.368726
     61          1           0       -6.653268   -0.785388   -1.737144
     62          1           0       -5.918021   -2.223806   -1.070244
     63          1           0       -7.436162   -1.257252    0.569541
     64          1           0       -5.791190   -1.197167    1.186203
     65          1           0       -5.655287    1.234949    0.593591
     66          1           0       -7.760498    2.480937    0.025757
     67          1           0       -7.316362    1.362544   -1.272527
     68          1           0       -8.624120    0.941218   -0.149767
     69          1           0       -8.034791    0.479745    2.384191
     70          1           0       -6.333218    0.501875    2.887029
     71          1           0       -7.146509    2.014648    2.437908
     72          1           0       -2.449181   -2.779713    0.371386
     73          1           0       -2.863166   -2.853012   -1.349842
     74          1           0       -4.129371   -2.971087   -0.116083
 ---------------------------------------------------------------------
 Rotational constants (GHZ):           0.5329451           0.0601873           0.0579203
 Leave Link  202 at Mon Jul 28 19:01:10 2025, MaxMem=  1073741824 cpu:               0.1 elap:               0.0
 (Enter /app/gaussian/g16/l301.exe)
 Standard basis: 6-31+G (6D, 7F)
 Ernie: Thresh=  0.10000D-02 Tol=  0.10000D-05 Strict=F.
 There are   456 symmetry adapted cartesian basis functions of A   symmetry.
 There are   456 symmetry adapted basis functions of A   symmetry.
   456 basis functions,   912 primitive gaussians,   456 cartesian basis functions
   108 alpha electrons      108 beta electrons
       nuclear repulsion energy      2810.2317910947 Hartrees.
 IExCor=  402 DFT=T Ex+Corr=B3LYP ExCW=0 ScaHFX=  0.200000
 ScaDFX=  0.800000  0.720000  1.000000  0.810000 ScalE2=  1.000000  1.000000
 IRadAn=      5 IRanWt=     -1 IRanGd=            0 ICorTp=0 IEmpDi=  4
 NAtoms=   74 NActive=   74 NUniq=   74 SFac= 1.00D+00 NAtFMM=   60 NAOKFM=T Big=T
 Integral buffers will be    131072 words long.
 Raffenetti 2 integral format.
 Two-electron integral symmetry is turned on.
 Leave Link  301 at Mon Jul 28 19:01:10 2025, MaxMem=  1073741824 cpu:               0.4 elap:               0.1
 (Enter /app/gaussian/g16/l302.exe)
 NPDir=0 NMtPBC=     1 NCelOv=     1 NCel=       1 NClECP=     1 NCelD=      1
         NCelK=      1 NCelE2=     1 NClLst=     1 CellRange=     0.0.
 One-electron integrals computed using PRISM.
 One-electron integral symmetry used in STVInt
 NBasis=   456 RedAO= T EigKep=  1.02D-06  NBF=   456
 NBsUse=   455 1.00D-06 EigRej=  5.94D-07 NBFU=   455
 Precomputing XC quadrature grid using
 IXCGrd= 4 IRadAn=           5 IRanWt=          -1 IRanGd=           0 AccXCQ= 0.00D+00.
 Generated NRdTot=       0 NPtTot=           0 NUsed=           0 NTot=          32
 NSgBfM=   441   440   440   441   441 MxSgAt=    74 MxSgA2=    74.
 Leave Link  302 at Mon Jul 28 19:01:11 2025, MaxMem=  1073741824 cpu:              11.6 elap:               1.5
 (Enter /app/gaussian/g16/l303.exe)
 DipDrv:  MaxL=1.
 Leave Link  303 at Mon Jul 28 19:01:11 2025, MaxMem=  1073741824 cpu:               0.5 elap:               0.1
 (Enter /app/gaussian/g16/l401.exe)
 Initial guess from the checkpoint file:  "/work/scr/Gau-255599.chk"
 B after Tr=     0.000000   -0.000000    0.000000
         Rot=    0.999999   -0.001411   -0.000031    0.000152 Ang=  -0.16 deg.
 Guess basis will be translated and rotated to current coordinates.
 JPrj=2 DoOrth=T DoCkMO=T.
 Generating alternative initial guess.
 ExpMin= 4.38D-02 ExpMax= 5.48D+03 ExpMxC= 8.25D+02 IAcc=3 IRadAn=         5 AccDes= 0.00D+00
 Harris functional with IExCor=  402 and IRadAn=       5 diagonalized for initial guess.
 HarFok:  IExCor=  402 AccDes= 0.00D+00 IRadAn=         5 IDoV= 1 UseB2=F ITyADJ=14
 ICtDFT=  3500011 ScaDFX=  1.000000  1.000000  1.000000  1.000000
 FoFCou: FMM=F IPFlag=           0 FMFlag=      100000 FMFlg1=        2001
         NFxFlg=           0 DoJE=T BraDBF=F KetDBF=T FulRan=T
         wScrn=  0.000000 ICntrl=       500 IOpCl=  0 I1Cent=   200000004 NGrid=           0
         NMat0=    1 NMatS0=      1 NMatT0=    0 NMatD0=    1 NMtDS0=    0 NMtDT0=    0
 Petite list used in FoFCou.
 Harris En= -1131.63642426181    
 Leave Link  401 at Mon Jul 28 19:01:21 2025, MaxMem=  1073741824 cpu:              77.7 elap:               9.8
 (Enter /app/gaussian/g16/l502.exe)
 Integral symmetry usage will be decided dynamically.
 Closed shell SCF:
 Using DIIS extrapolation, IDIIS=  1040.
 NGot=  1073741824 LenX=  1073314746 LenY=  1073106354
 Requested convergence on RMS density matrix=1.00D-08 within 128 cycles.
 Requested convergence on MAX density matrix=1.00D-06.
 Requested convergence on             energy=1.00D-06.
 No special actions if energy rises.
 Fock matrices will be formed incrementally for  20 cycles.

 Cycle   1  Pass 1  IDiag  1:
 FoFJK:  IHMeth= 1 ICntrl=       0 DoSepK=F KAlg= 0 I1Cent=           0 FoldK=F
 IRaf= 990000000 NMat=       1 IRICut=       1 DoRegI=T DoRafI=F ISym2E= 0 IDoP0=0 IntGTp=1.
 FoFCou: FMM=T IPFlag=           0 FMFlag=      100000 FMFlg1=        2001
         NFxFlg=           0 DoJE=F BraDBF=F KetDBF=F FulRan=T
         wScrn=  0.000000 ICntrl=         0 IOpCl=  0 I1Cent=           0 NGrid=           0
         NMat0=    1 NMatS0=      1 NMatT0=    0 NMatD0=    1 NMtDS0=    0 NMtDT0=    0
 Symmetry not used in FoFCou.
 FMM levels:  10  Number of levels for PrismC:   9
 E= -1131.55617699663    
 DIIS: error= 1.89D-03 at cycle   1 NSaved=   1.
 NSaved= 1 IEnMin= 1 EnMin= -1131.55617699663     IErMin= 1 ErrMin= 1.89D-03
 ErrMax= 1.89D-03  0.00D+00 EMaxC= 1.00D-01 BMatC= 1.20D-03 BMatP= 1.20D-03
 IDIUse=3 WtCom= 9.81D-01 WtEn= 1.89D-02
 Coeff-Com:  0.100D+01
 Coeff-En:   0.100D+01
 Coeff:      0.100D+01
 Gap=     0.521 Goal=   None    Shift=    0.000
 GapD=    0.521 DampG=2.000 DampE=1.000 DampFc=2.0000 IDamp=-1.
 RMSDP=1.13D-03 MaxDP=7.76D-02              OVMax= 5.52D-03

 Cycle   2  Pass 1  IDiag  1:
 RMSU=  1.13D-03    CP:  1.00D+00
 E= -1131.55724242799     Delta-E=       -0.001065431366 Rises=F Damp=F
 DIIS: error= 6.30D-05 at cycle   2 NSaved=   2.
 NSaved= 2 IEnMin= 2 EnMin= -1131.55724242799     IErMin= 2 ErrMin= 6.30D-05
 ErrMax= 6.30D-05  0.00D+00 EMaxC= 1.00D-01 BMatC= 6.76D-06 BMatP= 1.20D-03
 IDIUse=1 WtCom= 1.00D+00 WtEn= 0.00D+00
 Coeff-Com: -0.114D-01 0.101D+01
 Coeff:     -0.114D-01 0.101D+01
 Gap=     0.231 Goal=   None    Shift=    0.000
 RMSDP=4.25D-04 MaxDP=4.04D-02 DE=-1.07D-03 OVMax= 1.28D-03

 Cycle   3  Pass 1  IDiag  1:
 RMSU=  3.42D-04    CP:  9.98D-01  9.61D-01
 E= -1131.55724350789     Delta-E=       -0.000001079891 Rises=F Damp=F
 DIIS: error= 1.19D-04 at cycle   3 NSaved=   3.
 NSaved= 3 IEnMin= 3 EnMin= -1131.55724350789     IErMin= 2 ErrMin= 6.30D-05
 ErrMax= 1.19D-04  0.00D+00 EMaxC= 1.00D-01 BMatC= 9.03D-06 BMatP= 6.76D-06
 IDIUse=3 WtCom= 4.78D-01 WtEn= 5.22D-01
 Coeff-Com: -0.108D-01 0.552D+00 0.459D+00
 Coeff-En:   0.000D+00 0.466D+00 0.534D+00
 Coeff:     -0.516D-02 0.507D+00 0.498D+00
 Gap=     0.231 Goal=   None    Shift=    0.000
 RMSDP=2.20D-04 MaxDP=2.28D-02 DE=-1.08D-06 OVMax= 1.27D-03

 Cycle   4  Pass 1  IDiag  1:
 RMSU=  1.09D-04    CP:  9.98D-01  9.89D-01  5.39D-01
 E= -1131.55725233937     Delta-E=       -0.000008831488 Rises=F Damp=F
 DIIS: error= 6.17D-05 at cycle   4 NSaved=   4.
 NSaved= 4 IEnMin= 4 EnMin= -1131.55725233937     IErMin= 4 ErrMin= 6.17D-05
 ErrMax= 6.17D-05  0.00D+00 EMaxC= 1.00D-01 BMatC= 8.57D-07 BMatP= 6.76D-06
 IDIUse=1 WtCom= 1.00D+00 WtEn= 0.00D+00
 Coeff-Com: -0.390D-02 0.159D+00 0.266D+00 0.578D+00
 Coeff:     -0.390D-02 0.159D+00 0.266D+00 0.578D+00
 Gap=     0.231 Goal=   None    Shift=    0.000
 RMSDP=4.32D-05 MaxDP=3.01D-03 DE=-8.83D-06 OVMax= 6.29D-04

 Cycle   5  Pass 1  IDiag  1:
 RMSU=  2.80D-05    CP:  9.99D-01  9.89D-01  5.68D-01  7.15D-01
 E= -1131.55725310428     Delta-E=       -0.000000764905 Rises=F Damp=F
 DIIS: error= 2.62D-05 at cycle   5 NSaved=   5.
 NSaved= 5 IEnMin= 5 EnMin= -1131.55725310428     IErMin= 5 ErrMin= 2.62D-05
 ErrMax= 2.62D-05  0.00D+00 EMaxC= 1.00D-01 BMatC= 1.64D-07 BMatP= 8.57D-07
 IDIUse=1 WtCom= 1.00D+00 WtEn= 0.00D+00
 Coeff-Com: -0.525D-03-0.814D-03 0.882D-01 0.382D+00 0.531D+00
 Coeff:     -0.525D-03-0.814D-03 0.882D-01 0.382D+00 0.531D+00
 Gap=     0.231 Goal=   None    Shift=    0.000
 RMSDP=1.42D-05 MaxDP=9.85D-04 DE=-7.65D-07 OVMax= 2.13D-04

 Cycle   6  Pass 1  IDiag  1:
 RMSU=  1.11D-05    CP:  9.98D-01  9.88D-01  5.79D-01  7.04D-01  7.64D-01
 E= -1131.55725327366     Delta-E=       -0.000000169381 Rises=F Damp=F
 DIIS: error= 2.31D-06 at cycle   6 NSaved=   6.
 NSaved= 6 IEnMin= 6 EnMin= -1131.55725327366     IErMin= 6 ErrMin= 2.31D-06
 ErrMax= 2.31D-06  0.00D+00 EMaxC= 1.00D-01 BMatC= 5.13D-09 BMatP= 1.64D-07
 IDIUse=1 WtCom= 1.00D+00 WtEn= 0.00D+00
 Coeff-Com: -0.265D-04-0.998D-02 0.266D-01 0.150D+00 0.256D+00 0.577D+00
 Coeff:     -0.265D-04-0.998D-02 0.266D-01 0.150D+00 0.256D+00 0.577D+00
 Gap=     0.231 Goal=   None    Shift=    0.000
 RMSDP=6.67D-06 MaxDP=6.31D-04 DE=-1.69D-07 OVMax= 2.04D-05

 Cycle   7  Pass 1  IDiag  1:
 RMSU=  2.65D-06    CP:  9.98D-01  9.88D-01  5.82D-01  7.38D-01  7.24D-01
                    CP:  6.14D-01
 E= -1131.55725327939     Delta-E=       -0.000000005735 Rises=F Damp=F
 DIIS: error= 8.27D-07 at cycle   7 NSaved=   7.
 NSaved= 7 IEnMin= 7 EnMin= -1131.55725327939     IErMin= 7 ErrMin= 8.27D-07
 ErrMax= 8.27D-07  0.00D+00 EMaxC= 1.00D-01 BMatC= 5.39D-10 BMatP= 5.13D-09
 IDIUse=1 WtCom= 1.00D+00 WtEn= 0.00D+00
 Coeff-Com:  0.288D-04-0.533D-02 0.701D-02 0.488D-01 0.923D-01 0.308D+00
 Coeff-Com:  0.550D+00
 Coeff:      0.288D-04-0.533D-02 0.701D-02 0.488D-01 0.923D-01 0.308D+00
 Coeff:      0.550D+00
 Gap=     0.231 Goal=   None    Shift=    0.000
 RMSDP=1.60D-06 MaxDP=1.24D-04 DE=-5.74D-09 OVMax= 3.15D-06

 Cycle   8  Pass 1  IDiag  1:
 RMSU=  8.06D-07    CP:  9.98D-01  9.87D-01  5.85D-01  7.39D-01  7.17D-01
                    CP:  6.43D-01  7.34D-01
 E= -1131.55725327963     Delta-E=       -0.000000000237 Rises=F Damp=F
 DIIS: error= 2.26D-07 at cycle   8 NSaved=   8.
 NSaved= 8 IEnMin= 8 EnMin= -1131.55725327963     IErMin= 8 ErrMin= 2.26D-07
 ErrMax= 2.26D-07  0.00D+00 EMaxC= 1.00D-01 BMatC= 2.81D-11 BMatP= 5.39D-10
 IDIUse=1 WtCom= 1.00D+00 WtEn= 0.00D+00
 Coeff-Com:  0.149D-04-0.173D-02 0.133D-02 0.117D-01 0.237D-01 0.101D+00
 Coeff-Com:  0.256D+00 0.608D+00
 Coeff:      0.149D-04-0.173D-02 0.133D-02 0.117D-01 0.237D-01 0.101D+00
 Coeff:      0.256D+00 0.608D+00
 Gap=     0.231 Goal=   None    Shift=    0.000
 RMSDP=4.29D-07 MaxDP=3.82D-05 DE=-2.37D-10 OVMax= 9.79D-07

 Cycle   9  Pass 1  IDiag  1:
 RMSU=  2.54D-07    CP:  9.98D-01  9.88D-01  5.84D-01  7.39D-01  7.20D-01
                    CP:  6.54D-01  7.15D-01  8.28D-01
 E= -1131.55725327991     Delta-E=       -0.000000000277 Rises=F Damp=F
 DIIS: error= 9.04D-08 at cycle   9 NSaved=   9.
 NSaved= 9 IEnMin= 9 EnMin= -1131.55725327991     IErMin= 9 ErrMin= 9.04D-08
 ErrMax= 9.04D-08  0.00D+00 EMaxC= 1.00D-01 BMatC= 3.69D-12 BMatP= 2.81D-11
 IDIUse=1 WtCom= 1.00D+00 WtEn= 0.00D+00
 Coeff-Com:  0.467D-05-0.347D-03-0.238D-04 0.103D-02 0.276D-02 0.207D-01
 Coeff-Com:  0.770D-01 0.316D+00 0.583D+00
 Coeff:      0.467D-05-0.347D-03-0.238D-04 0.103D-02 0.276D-02 0.207D-01
 Coeff:      0.770D-01 0.316D+00 0.583D+00
 Gap=     0.231 Goal=   None    Shift=    0.000
 RMSDP=1.26D-07 MaxDP=1.05D-05 DE=-2.77D-10 OVMax= 3.75D-07

 Cycle  10  Pass 1  IDiag  1:
 RMSU=  9.20D-08    CP:  9.98D-01  9.88D-01  5.84D-01  7.39D-01  7.21D-01
                    CP:  6.53D-01  7.30D-01  8.28D-01  8.51D-01
 E= -1131.55725327989     Delta-E=        0.000000000016 Rises=F Damp=F
 DIIS: error= 2.48D-08 at cycle  10 NSaved=  10.
 NSaved=10 IEnMin= 9 EnMin= -1131.55725327991     IErMin=10 ErrMin= 2.48D-08
 ErrMax= 2.48D-08  0.00D+00 EMaxC= 1.00D-01 BMatC= 3.77D-13 BMatP= 3.69D-12
 IDIUse=1 WtCom= 1.00D+00 WtEn= 0.00D+00
 Coeff-Com:  0.182D-06 0.737D-04-0.201D-03-0.113D-02-0.199D-02-0.399D-02
 Coeff-Com:  0.209D-02 0.713D-01 0.289D+00 0.645D+00
 Coeff:      0.182D-06 0.737D-04-0.201D-03-0.113D-02-0.199D-02-0.399D-02
 Coeff:      0.209D-02 0.713D-01 0.289D+00 0.645D+00
 Gap=     0.231 Goal=   None    Shift=    0.000
 RMSDP=4.85D-08 MaxDP=3.01D-06 DE= 1.59D-11 OVMax= 9.96D-08

 Cycle  11  Pass 1  IDiag  1:
 RMSU=  2.57D-08    CP:  9.98D-01  9.88D-01  5.84D-01  7.39D-01  7.21D-01
                    CP:  6.54D-01  7.33D-01  8.40D-01  7.94D-01  8.29D-01
 E= -1131.55725327984     Delta-E=        0.000000000056 Rises=F Damp=F
 DIIS: error= 3.36D-09 at cycle  11 NSaved=  11.
 NSaved=11 IEnMin= 9 EnMin= -1131.55725327991     IErMin=11 ErrMin= 3.36D-09
 ErrMax= 3.36D-09  0.00D+00 EMaxC= 1.00D-01 BMatC= 1.87D-14 BMatP= 3.77D-13
 IDIUse=1 WtCom= 1.00D+00 WtEn= 0.00D+00
 Coeff-Com: -0.220D-06 0.544D-04-0.833D-04-0.549D-03-0.102D-02-0.312D-02
 Coeff-Com: -0.436D-02 0.898D-02 0.838D-01 0.273D+00 0.644D+00
 Coeff:     -0.220D-06 0.544D-04-0.833D-04-0.549D-03-0.102D-02-0.312D-02
 Coeff:     -0.436D-02 0.898D-02 0.838D-01 0.273D+00 0.644D+00
 Gap=     0.231 Goal=   None    Shift=    0.000
 RMSDP=1.62D-08 MaxDP=1.25D-06 DE= 5.59D-11 OVMax= 2.30D-08

 Cycle  12  Pass 1  IDiag  1:
 RMSU=  7.78D-09    CP:  9.98D-01  9.88D-01  5.84D-01  7.39D-01  7.21D-01
                    CP:  6.54D-01  7.34D-01  8.43D-01  8.24D-01  8.28D-01
                    CP:  6.33D-01
 E= -1131.55725327974     Delta-E=        0.000000000102 Rises=F Damp=F
 DIIS: error= 8.15D-10 at cycle  12 NSaved=  12.
 NSaved=12 IEnMin= 9 EnMin= -1131.55725327991     IErMin=12 ErrMin= 8.15D-10
 ErrMax= 8.15D-10  0.00D+00 EMaxC= 1.00D-01 BMatC= 1.25D-15 BMatP= 1.87D-14
 IDIUse=1 WtCom= 1.00D+00 WtEn= 0.00D+00
 Coeff-Com: -0.100D-06 0.175D-04-0.204D-04-0.148D-03-0.285D-03-0.103D-02
 Coeff-Com: -0.200D-02-0.126D-02 0.150D-01 0.704D-01 0.264D+00 0.655D+00
 Coeff:     -0.100D-06 0.175D-04-0.204D-04-0.148D-03-0.285D-03-0.103D-02
 Coeff:     -0.200D-02-0.126D-02 0.150D-01 0.704D-01 0.264D+00 0.655D+00
 Gap=     0.231 Goal=   None    Shift=    0.000
 RMSDP=2.82D-09 MaxDP=2.16D-07 DE= 1.02D-10 OVMax= 5.09D-09

 SCF Done:  E(RB3LYP) =  -1131.55725328     A.U. after   12 cycles
            NFock= 12  Conv=0.28D-08     -V/T= 2.0059
 KE= 1.124918547783D+03 PE=-8.242221999177D+03 EE= 3.175514407019D+03
 Leave Link  502 at Mon Jul 28 19:05:16 2025, MaxMem=  1073741824 cpu:            1875.2 elap:             235.2
 (Enter /app/gaussian/g16/l701.exe)
 ... and contract with generalized density number  0.
 Compute integral first derivatives.
 Leave Link  701 at Mon Jul 28 19:05:17 2025, MaxMem=  1073741824 cpu:               1.9 elap:               0.3
 (Enter /app/gaussian/g16/l702.exe)
 L702 exits ... SP integral derivatives will be done elsewhere.
 Leave Link  702 at Mon Jul 28 19:05:17 2025, MaxMem=  1073741824 cpu:               0.2 elap:               0.0
 (Enter /app/gaussian/g16/l703.exe)
 Integral derivatives from FoFJK, PRISM(SPDF).
 Compute integral first derivatives, UseDBF=F ICtDFT=           0.
 Calling FoFJK, ICntrl=      2127 FMM=T ISym2X=0 I1Cent= 0 IOpClX= 0 NMat=1 NMatS=1 NMatT=0.
 FoFJK:  IHMeth= 1 ICntrl=    2127 DoSepK=F KAlg= 0 I1Cent=           0 FoldK=F
 IRaf=         0 NMat=       1 IRICut=       1 DoRegI=T DoRafI=F ISym2E= 0 IDoP0=0 IntGTp=1.
 FoFCou: FMM=T IPFlag=           0 FMFlag=      100000 FMFlg1=        2001
         NFxFlg=           0 DoJE=F BraDBF=F KetDBF=F FulRan=T
         wScrn=  0.000000 ICntrl=      2127 IOpCl=  0 I1Cent=           0 NGrid=           0
         NMat0=    1 NMatS0=      1 NMatT0=    0 NMatD0=    1 NMtDS0=    0 NMtDT0=    0
 Symmetry not used in FoFCou.
 FMM levels:  10  Number of levels for PrismC:   9
 Leave Link  703 at Mon Jul 28 19:06:08 2025, MaxMem=  1073741824 cpu:             407.9 elap:              51.1
 (Enter /app/gaussian/g16/l716.exe)
 Dipole        =-5.87365039D-01 4.51180016D-01-3.14445071D-01
 ***** Axes restored to original set *****
 -------------------------------------------------------------------
 Center     Atomic                   Forces (Hartrees/Bohr)
 Number     Number              X              Y              Z
 -------------------------------------------------------------------
      1        6          -0.000008240    0.000077832   -0.000134952
      2        6          -0.000039953    0.000056569    0.000001858
      3        6           0.000000103    0.000059452   -0.000028133
      4        6          -0.000043430   -0.000065387    0.000029989
      5        6          -0.000085479    0.000038129   -0.000040116
      6        6          -0.000037671   -0.000136701   -0.000063895
      7        6           0.000053125    0.000071813   -0.000159141
      8        6           0.000060053   -0.000006421   -0.000000337
      9        6          -0.000131346    0.000004128    0.000034297
     10        6           0.000097844    0.000033500   -0.000010380
     11        6           0.000014409    0.000158539    0.000032311
     12        6           0.000219280    0.000037960   -0.000066173
     13        8          -0.000055761    0.000013427    0.000133612
     14        6          -0.000005386   -0.000120889   -0.000039492
     15        6          -0.000031454   -0.000061030   -0.000086954
     16        6           0.000006958   -0.000045361    0.000087821
     17        6          -0.000036008   -0.000062852   -0.000037413
     18        6          -0.000002974   -0.000059146    0.000018016
     19        6           0.000056247    0.000005877   -0.000012001
     20        6           0.000003066    0.000015816    0.000062499
     21        6           0.000029831    0.000003796    0.000020503
     22        6          -0.000007888    0.000006792    0.000037065
     23        6          -0.000057923   -0.000089882    0.000027905
     24        6           0.000007628   -0.000051875   -0.000046800
     25        6          -0.000032831    0.000061747   -0.000078380
     26        6           0.000004232    0.000048000    0.000079858
     27        6           0.000039240    0.000054592    0.000007536
     28        6          -0.000025154   -0.000055881   -0.000095133
     29        1           0.000010957    0.000045421    0.000005678
     30        1          -0.000001842   -0.000010880    0.000024758
     31        1           0.000007849   -0.000008899    0.000043360
     32        1          -0.000046081   -0.000008043    0.000046289
     33        1          -0.000025579   -0.000020715    0.000038979
     34        1           0.000006803    0.000024433   -0.000022269
     35        1           0.000020245    0.000000385    0.000054521
     36        1           0.000034694   -0.000033389    0.000022337
     37        1           0.000025586    0.000012330    0.000061351
     38        1           0.000006518   -0.000011399    0.000005367
     39        1           0.000023233   -0.000006558    0.000007163
     40        1          -0.000031731    0.000006821    0.000006582
     41        1          -0.000009819   -0.000061321   -0.000030634
     42        1          -0.000001223   -0.000073516   -0.000009422
     43        1           0.000012966    0.000019607   -0.000050976
     44        1           0.000024606    0.000006153   -0.000027104
     45        1          -0.000041629    0.000062341    0.000011138
     46        1          -0.000034092    0.000072501    0.000089007
     47        1          -0.000032857    0.000015532    0.000004124
     48        1           0.000004020    0.000018848   -0.000003222
     49        1          -0.000032108    0.000025348    0.000002553
     50        1          -0.000016883    0.000020166    0.000048586
     51        1           0.000003538    0.000033122    0.000001882
     52        1          -0.000011879    0.000007191    0.000008765
     53        1          -0.000010684   -0.000035503   -0.000033128
     54        1          -0.000002423   -0.000042902   -0.000026821
     55        1           0.000012344   -0.000012943   -0.000038329
     56        1           0.000047468   -0.000003042   -0.000001959
     57        1          -0.000003349   -0.000008276    0.000023211
     58        1           0.000014892    0.000010173    0.000003106
     59        1           0.000028063   -0.000044920   -0.000028991
     60        1          -0.000006763    0.000024031   -0.000018191
     61        1           0.000061121   -0.000007479   -0.000015909
     62        1          -0.000023305    0.000045991    0.000000887
     63        1           0.000028107    0.000000648   -0.000013427
     64        1          -0.000032451    0.000020438    0.000032320
     65        1          -0.000007690   -0.000000601    0.000003931
     66        1           0.000003384   -0.000026977   -0.000019532
     67        1          -0.000001066    0.000003402   -0.000030279
     68        1          -0.000004735   -0.000006412   -0.000019112
     69        1          -0.000002715   -0.000009619    0.000010588
     70        1          -0.000019153   -0.000018461    0.000022686
     71        1          -0.000006610   -0.000032870    0.000011864
     72        1           0.000007747    0.000009492    0.000053912
     73        1           0.000010761   -0.000009949    0.000021898
     74        1           0.000021247    0.000017760    0.000048491
 -------------------------------------------------------------------
 Cartesian Forces:  Max     0.000219280 RMS     0.000045595
 Leave Link  716 at Mon Jul 28 19:06:08 2025, MaxMem=  1073741824 cpu:               0.2 elap:               0.0
 (Enter /app/gaussian/g16/l103.exe)

 GradGradGradGradGradGradGradGradGradGradGradGradGradGradGradGradGradGrad
 Berny optimization.
 Using GEDIIS/GDIIS optimizer.
 FormGI is forming the generalized inverse of G from B-inverse, IUseBI=4.
 Internal  Forces:  Max     0.000176377 RMS     0.000029792
 Search for a local minimum.
 Step number   6 out of a maximum of  444
 All quantities printed in internal units (Hartrees-Bohrs-Radians)
 RMS Force = .29792D-04 SwitMx=.10000D-02 MixMth= 2
 Mixed Optimization -- En-DIIS/RFO-DIIS
 Swapping is turned off.
 Update second derivatives using D2CorX and points    1    2    3    4    5
                                                      6
 DE= -1.13D-05 DEPred=-1.38D-05 R= 8.18D-01
 TightC=F SS=  1.41D+00  RLast= 5.21D-02 DXNew= 1.3636D+00 1.5640D-01
 Trust test= 8.18D-01 RLast= 5.21D-02 DXMaxT set to 8.11D-01
 ITU=  1  1  0  1  1  0
     Eigenvalues ---    0.00220   0.00230   0.00232   0.00235   0.00306
     Eigenvalues ---    0.00317   0.00336   0.00347   0.00354   0.00376
     Eigenvalues ---    0.00404   0.00468   0.00501   0.00534   0.00565
     Eigenvalues ---    0.00638   0.00673   0.00997   0.01211   0.01342
     Eigenvalues ---    0.01428   0.01634   0.01737   0.02201   0.02321
     Eigenvalues ---    0.02439   0.02694   0.03055   0.03109   0.03127
     Eigenvalues ---    0.03180   0.03240   0.03373   0.03455   0.03519
     Eigenvalues ---    0.03659   0.03743   0.03857   0.03878   0.04229
     Eigenvalues ---    0.04320   0.04390   0.04467   0.04609   0.04645
     Eigenvalues ---    0.04680   0.04692   0.04701   0.04722   0.04734
     Eigenvalues ---    0.04768   0.04815   0.04820   0.04924   0.04966
     Eigenvalues ---    0.04994   0.05089   0.05216   0.05271   0.05313
     Eigenvalues ---    0.05397   0.05420   0.05426   0.05427   0.05437
     Eigenvalues ---    0.05448   0.05470   0.05507   0.05533   0.05545
     Eigenvalues ---    0.05576   0.05592   0.05639   0.05743   0.05831
     Eigenvalues ---    0.06008   0.06138   0.06591   0.06965   0.07088
     Eigenvalues ---    0.07280   0.07489   0.07714   0.07900   0.08092
     Eigenvalues ---    0.08131   0.08213   0.08625   0.08724   0.08858
     Eigenvalues ---    0.08924   0.09017   0.09174   0.09317   0.09535
     Eigenvalues ---    0.10244   0.10388   0.10756   0.11360   0.12330
     Eigenvalues ---    0.12564   0.12626   0.12643   0.12886   0.13702
     Eigenvalues ---    0.13888   0.14547   0.15008   0.15625   0.15701
     Eigenvalues ---    0.15842   0.16000   0.16000   0.16000   0.16000
     Eigenvalues ---    0.16000   0.16000   0.16000   0.16000   0.16000
     Eigenvalues ---    0.16000   0.16000   0.16009   0.16036   0.16057
     Eigenvalues ---    0.16232   0.16589   0.16867   0.16964   0.16991
     Eigenvalues ---    0.17801   0.18475   0.19325   0.20034   0.21223
     Eigenvalues ---    0.21749   0.21904   0.21977   0.22211   0.22452
     Eigenvalues ---    0.23415   0.24994   0.25674   0.25967   0.26280
     Eigenvalues ---    0.26846   0.26953   0.27025   0.27454   0.27775
     Eigenvalues ---    0.27852   0.28006   0.28235   0.28408   0.28490
     Eigenvalues ---    0.28618   0.28779   0.28846   0.28956   0.28987
     Eigenvalues ---    0.29230   0.29387   0.29424   0.29524   0.29738
     Eigenvalues ---    0.30198   0.31136   0.31659   0.33254   0.33454
     Eigenvalues ---    0.33550   0.33737   0.33828   0.33873   0.33892
     Eigenvalues ---    0.33920   0.33943   0.33960   0.33997   0.34007
     Eigenvalues ---    0.34017   0.34022   0.34040   0.34053   0.34078
     Eigenvalues ---    0.34107   0.34123   0.34134   0.34136   0.34139
     Eigenvalues ---    0.34145   0.34160   0.34186   0.34199   0.34212
     Eigenvalues ---    0.34214   0.34228   0.34229   0.34236   0.34252
     Eigenvalues ---    0.34259   0.34269   0.34289   0.34308   0.34345
     Eigenvalues ---    0.34380   0.34405   0.34453   0.34513   0.34577
     Eigenvalues ---    0.34759   0.35003   0.35311   0.38957   0.52868
     Eigenvalues ---    0.53547
 En-DIIS/RFO-DIIS/Sim-DIIS IScMMF=       -3 using points:     6    5    4    3    2
 RFO step:  Lambda=-3.86097566D-06.
 NNeg= 0 NGDIIS= 5 SimSw=  2.50D-01 Rises=F DC= -1.13D-05 SmlDif=  1.00D-05
 NRisDI= 0 DoIntr=F SqrtH=F CThrHd= 10.0 CDAdj=  3.0
 RMS Error=  0.7384360400D-03 NUsed= 5 OKEnD=T EnDIS=F
 InvSVX:  RCond= 2.03D-04 Info=           0 Equed=N FErr=  2.34D-15 BErr=  8.49D-17
 DidBck=F Rises=F RFO-DIIS coefs:    0.99640    0.06709   -0.05290   -0.03941    0.02882
 Iteration  1 RMS(Cart)=  0.00234512 RMS(Int)=  0.00000135
 Iteration  2 RMS(Cart)=  0.00000343 RMS(Int)=  0.00000068
 Iteration  3 RMS(Cart)=  0.00000000 RMS(Int)=  0.00000068
 ITry= 1 IFail=0 DXMaxC= 1.24D-02 DCOld= 1.00D+10 DXMaxT= 8.11D-01 DXLimC= 3.00D+00 Rises=F
 Variable       Old X    -DE/DX   Delta X   Delta X   Delta X     New X
                                 (Linear)    (Quad)   (Total)
    R1        2.92853  -0.00010  -0.00017  -0.00018  -0.00035   2.92818
    R2        2.07168   0.00004  -0.00001   0.00005   0.00004   2.07172
    R3        2.06709   0.00001  -0.00001   0.00004   0.00004   2.06713
    R4        2.06989   0.00001   0.00001   0.00003   0.00004   2.06994
    R5        2.95184   0.00004  -0.00001   0.00015   0.00015   2.95199
    R6        2.92477   0.00002   0.00005  -0.00007  -0.00002   2.92475
    R7        2.97711   0.00003   0.00002   0.00007   0.00009   2.97719
    R8        2.90655   0.00001   0.00007  -0.00000   0.00007   2.90662
    R9        2.91184   0.00012  -0.00002   0.00026   0.00024   2.91207
   R10        2.09063  -0.00004  -0.00006  -0.00005  -0.00011   2.09052
   R11        2.94243  -0.00001   0.00009   0.00001   0.00009   2.94253
   R12        2.91609  -0.00002  -0.00007  -0.00005  -0.00012   2.91597
   R13        2.07986   0.00004  -0.00007   0.00013   0.00006   2.07992
   R14        2.97619  -0.00018  -0.00004  -0.00024  -0.00028   2.97592
   R15        2.93070   0.00003  -0.00004   0.00029   0.00026   2.93096
   R16        2.08806   0.00003  -0.00003   0.00006   0.00002   2.08808
   R17        2.94306  -0.00004  -0.00010  -0.00005  -0.00015   2.94291
   R18        2.91115  -0.00006  -0.00009  -0.00030  -0.00039   2.91076
   R19        2.96085   0.00004  -0.00015   0.00023   0.00008   2.96093
   R20        2.06743  -0.00000   0.00001   0.00000   0.00001   2.06744
   R21        2.06989   0.00005  -0.00000   0.00014   0.00013   2.07002
   R22        2.07021   0.00005   0.00004   0.00004   0.00008   2.07029
   R23        2.54282  -0.00006   0.00008  -0.00013  -0.00005   2.54276
   R24        2.87521  -0.00007   0.00011  -0.00022  -0.00011   2.87510
   R25        2.84470   0.00007   0.00006   0.00010   0.00017   2.84487
   R26        2.06190   0.00000  -0.00003   0.00002  -0.00001   2.06188
   R27        2.07793   0.00002  -0.00000   0.00004   0.00004   2.07797
   R28        2.08708  -0.00001  -0.00005  -0.00002  -0.00006   2.08702
   R29        2.90437  -0.00002   0.00004  -0.00003   0.00001   2.90438
   R30        2.07605   0.00007   0.00001   0.00014   0.00016   2.07620
   R31        2.07891   0.00002  -0.00005   0.00007   0.00002   2.07893
   R32        2.77738   0.00005   0.00012   0.00011   0.00023   2.77761
   R33        2.87982  -0.00009  -0.00000  -0.00024  -0.00025   2.87957
   R34        2.08120   0.00006  -0.00006   0.00015   0.00009   2.08129
   R35        1.84918   0.00000   0.00005  -0.00002   0.00002   1.84920
   R36        2.91170  -0.00007   0.00014  -0.00040  -0.00026   2.91144
   R37        2.07203   0.00007   0.00002   0.00016   0.00019   2.07222
   R38        2.07407   0.00007  -0.00002   0.00021   0.00019   2.07426
   R39        2.07232   0.00000   0.00002  -0.00003  -0.00000   2.07231
   R40        2.07964   0.00001  -0.00000   0.00002   0.00002   2.07966
   R41        2.92600   0.00001   0.00011  -0.00012  -0.00000   2.92600
   R42        2.07394   0.00004   0.00000   0.00009   0.00010   2.07404
   R43        2.07203   0.00004   0.00002   0.00004   0.00006   2.07209
   R44        2.08100   0.00001  -0.00003   0.00005   0.00002   2.08102
   R45        2.07052   0.00001   0.00002   0.00004   0.00006   2.07058
   R46        2.94506   0.00008   0.00009   0.00007   0.00016   2.94522
   R47        2.07586   0.00000  -0.00002   0.00003   0.00000   2.07586
   R48        2.07064   0.00004   0.00000   0.00010   0.00011   2.07074
   R49        2.97321   0.00007  -0.00002   0.00024   0.00022   2.97343
   R50        2.07487  -0.00001  -0.00001  -0.00000  -0.00002   2.07486
   R51        2.07016   0.00002   0.00002   0.00004   0.00006   2.07022
   R52        2.94128   0.00002   0.00004  -0.00002   0.00002   2.94129
   R53        2.08643  -0.00002  -0.00007  -0.00002  -0.00010   2.08633
   R54        2.94090  -0.00001  -0.00005  -0.00008  -0.00013   2.94077
   R55        2.91589  -0.00002   0.00001  -0.00010  -0.00009   2.91580
   R56        2.08070  -0.00000  -0.00007   0.00003  -0.00003   2.08067
   R57        2.92288  -0.00005   0.00009  -0.00024  -0.00015   2.92272
   R58        2.07212   0.00006   0.00001   0.00017   0.00018   2.07230
   R59        2.08258   0.00003  -0.00004   0.00008   0.00004   2.08261
   R60        2.92002  -0.00006   0.00013  -0.00029  -0.00017   2.91985
   R61        2.07708   0.00005  -0.00002   0.00015   0.00013   2.07721
   R62        2.07566   0.00005   0.00001   0.00013   0.00014   2.07581
   R63        2.92761  -0.00007  -0.00002  -0.00024  -0.00026   2.92734
   R64        2.08220   0.00002  -0.00005   0.00006   0.00002   2.08221
   R65        2.07876   0.00005  -0.00002   0.00013   0.00011   2.07887
   R66        2.91440  -0.00001   0.00003  -0.00006  -0.00002   2.91438
   R67        2.91570   0.00005   0.00011   0.00007   0.00018   2.91589
   R68        2.08127   0.00001  -0.00008   0.00005  -0.00003   2.08124
   R69        2.07353   0.00003  -0.00002   0.00008   0.00006   2.07360
   R70        2.07092   0.00003   0.00001   0.00006   0.00007   2.07099
   R71        2.07696  -0.00001  -0.00005  -0.00001  -0.00006   2.07690
   R72        2.07650  -0.00000  -0.00005   0.00002  -0.00003   2.07647
   R73        2.07375   0.00003   0.00001   0.00006   0.00007   2.07382
   R74        2.07338   0.00003   0.00000   0.00007   0.00007   2.07345
   R75        2.06553   0.00003   0.00001   0.00007   0.00008   2.06561
   R76        2.07629  -0.00003  -0.00004  -0.00005  -0.00009   2.07620
   R77        2.06975   0.00005   0.00002   0.00013   0.00014   2.06989
    A1        1.92954  -0.00006  -0.00003  -0.00031  -0.00034   1.92920
    A2        1.95725   0.00003   0.00005   0.00015   0.00020   1.95746
    A3        1.94936   0.00007   0.00006   0.00035   0.00041   1.94977
    A4        1.87384   0.00000  -0.00004  -0.00011  -0.00015   1.87370
    A5        1.87584  -0.00001  -0.00001  -0.00008  -0.00008   1.87576
    A6        1.87415  -0.00003  -0.00003  -0.00003  -0.00006   1.87409
    A7        1.96201   0.00005   0.00007   0.00038   0.00045   1.96247
    A8        1.93535  -0.00004  -0.00017  -0.00040  -0.00057   1.93478
    A9        1.92378  -0.00003  -0.00009  -0.00025  -0.00034   1.92344
   A10        1.85558  -0.00000   0.00005  -0.00022  -0.00017   1.85541
   A11        1.74530  -0.00002   0.00014   0.00037   0.00051   1.74581
   A12        2.03349   0.00006   0.00003   0.00024   0.00028   2.03377
   A13        2.01112   0.00000  -0.00020   0.00002  -0.00017   2.01095
   A14        1.82042   0.00003  -0.00007   0.00061   0.00054   1.82096
   A15        1.83515  -0.00001   0.00029  -0.00040  -0.00011   1.83504
   A16        2.07273  -0.00003   0.00011   0.00007   0.00018   2.07291
   A17        1.84699  -0.00000  -0.00003  -0.00046  -0.00050   1.84649
   A18        1.85937   0.00001  -0.00006   0.00008   0.00002   1.85940
   A19        1.91410  -0.00002   0.00005  -0.00027  -0.00022   1.91388
   A20        1.93449   0.00000   0.00021  -0.00017   0.00004   1.93453
   A21        1.90757   0.00001  -0.00013   0.00046   0.00033   1.90790
   A22        1.91609   0.00001   0.00004  -0.00009  -0.00005   1.91604
   A23        1.90585   0.00001  -0.00001  -0.00001  -0.00002   1.90582
   A24        1.88531  -0.00001  -0.00016   0.00010  -0.00006   1.88525
   A25        1.96516  -0.00002   0.00011  -0.00042  -0.00031   1.96485
   A26        1.95416   0.00004   0.00006  -0.00008  -0.00003   1.95414
   A27        1.84293  -0.00000   0.00008   0.00002   0.00009   1.84302
   A28        1.97763  -0.00006  -0.00015   0.00008  -0.00006   1.97756
   A29        1.84544   0.00003   0.00011   0.00030   0.00041   1.84584
   A30        1.86680   0.00001  -0.00020   0.00016  -0.00004   1.86676
   A31        1.94913  -0.00012  -0.00022  -0.00052  -0.00074   1.94839
   A32        1.92043   0.00004   0.00018   0.00010   0.00028   1.92071
   A33        1.89357  -0.00001  -0.00008   0.00003  -0.00005   1.89352
   A34        1.89996   0.00005   0.00008   0.00006   0.00014   1.90010
   A35        1.91083   0.00007  -0.00005   0.00042   0.00037   1.91120
   A36        1.88898  -0.00003   0.00009  -0.00008   0.00002   1.88900
   A37        1.94266   0.00008   0.00014   0.00032   0.00046   1.94312
   A38        1.93712  -0.00001   0.00009  -0.00013  -0.00004   1.93707
   A39        1.94120   0.00004   0.00005   0.00026   0.00031   1.94151
   A40        1.87459  -0.00003  -0.00009  -0.00014  -0.00023   1.87436
   A41        1.87282  -0.00005  -0.00012  -0.00015  -0.00026   1.87256
   A42        1.89266  -0.00003  -0.00009  -0.00018  -0.00027   1.89239
   A43        2.14738   0.00001  -0.00008   0.00010   0.00003   2.14741
   A44        2.03256  -0.00001  -0.00005  -0.00010  -0.00014   2.03242
   A45        2.10324  -0.00001   0.00013  -0.00001   0.00012   2.10336
   A46        2.18412  -0.00004   0.00003  -0.00023  -0.00019   2.18393
   A47        2.07123   0.00003   0.00005   0.00010   0.00015   2.07139
   A48        2.02781   0.00001  -0.00009   0.00013   0.00004   2.02785
   A49        1.97349  -0.00003   0.00003  -0.00015  -0.00012   1.97337
   A50        1.91779  -0.00001  -0.00018   0.00002  -0.00017   1.91762
   A51        1.90521   0.00002   0.00012   0.00003   0.00015   1.90536
   A52        1.91138   0.00002  -0.00002   0.00024   0.00023   1.91161
   A53        1.91059  -0.00000  -0.00006  -0.00019  -0.00026   1.91033
   A54        1.84065   0.00000   0.00013   0.00005   0.00018   1.84083
   A55        1.95569  -0.00003   0.00036  -0.00014   0.00022   1.95591
   A56        1.91077  -0.00001   0.00002  -0.00020  -0.00018   1.91059
   A57        1.93536   0.00000   0.00001  -0.00001   0.00000   1.93536
   A58        1.92585   0.00002  -0.00020   0.00017  -0.00003   1.92582
   A59        1.86814   0.00004   0.00007   0.00039   0.00045   1.86859
   A60        1.86565  -0.00003  -0.00029  -0.00020  -0.00049   1.86517
   A61        1.94454  -0.00001   0.00023  -0.00047  -0.00023   1.94431
   A62        1.93043   0.00008  -0.00001   0.00043   0.00042   1.93085
   A63        1.91235  -0.00002  -0.00033   0.00045   0.00012   1.91247
   A64        1.86238  -0.00008   0.00060  -0.00108  -0.00048   1.86190
   A65        1.89866   0.00004   0.00001   0.00024   0.00025   1.89891
   A66        1.91464  -0.00000  -0.00051   0.00041  -0.00010   1.91454
   A67        1.93932  -0.00006   0.00045  -0.00080  -0.00036   1.93896
   A68        1.93346  -0.00010   0.00031  -0.00069  -0.00037   1.93309
   A69        1.91040   0.00003  -0.00013   0.00007  -0.00006   1.91033
   A70        1.89197   0.00007  -0.00008   0.00084   0.00076   1.89273
   A71        1.92226   0.00003   0.00001  -0.00003  -0.00002   1.92223
   A72        1.94058   0.00001   0.00009   0.00011   0.00020   1.94078
   A73        1.86354  -0.00004  -0.00023  -0.00027  -0.00050   1.86304
   A74        2.00155   0.00005   0.00000   0.00006   0.00006   2.00161
   A75        1.90667   0.00002  -0.00006   0.00019   0.00014   1.90680
   A76        1.88614  -0.00002   0.00004   0.00014   0.00018   1.88632
   A77        1.90346  -0.00006   0.00009  -0.00047  -0.00038   1.90307
   A78        1.89822   0.00001   0.00005   0.00006   0.00011   1.89833
   A79        1.86283   0.00000  -0.00014   0.00003  -0.00011   1.86272
   A80        1.99234  -0.00005   0.00002  -0.00017  -0.00015   1.99219
   A81        1.91204   0.00001  -0.00012   0.00005  -0.00007   1.91197
   A82        1.91555   0.00003   0.00003   0.00033   0.00037   1.91592
   A83        1.89177   0.00002  -0.00001  -0.00006  -0.00007   1.89170
   A84        1.89405   0.00002   0.00016  -0.00010   0.00007   1.89411
   A85        1.85278  -0.00002  -0.00010  -0.00005  -0.00016   1.85263
   A86        1.95033   0.00002   0.00018  -0.00043  -0.00025   1.95007
   A87        1.89485   0.00000   0.00005   0.00033   0.00037   1.89522
   A88        1.94918   0.00000  -0.00001  -0.00005  -0.00006   1.94912
   A89        1.91182  -0.00000  -0.00001   0.00026   0.00026   1.91208
   A90        1.89304  -0.00002  -0.00007  -0.00010  -0.00017   1.89286
   A91        1.86241  -0.00000  -0.00015   0.00002  -0.00013   1.86227
   A92        1.81126  -0.00002   0.00011  -0.00004   0.00007   1.81133
   A93        1.93120   0.00002  -0.00000   0.00026   0.00026   1.93145
   A94        1.96081   0.00001  -0.00004  -0.00000  -0.00005   1.96076
   A95        1.94006   0.00001   0.00004   0.00008   0.00012   1.94018
   A96        1.95586   0.00001  -0.00002  -0.00000  -0.00002   1.95584
   A97        1.86624  -0.00002  -0.00008  -0.00028  -0.00036   1.86588
   A98        1.87164  -0.00002  -0.00004   0.00022   0.00018   1.87182
   A99        1.93455   0.00000  -0.00000  -0.00008  -0.00009   1.93446
   A100       1.94012   0.00002   0.00008   0.00016   0.00024   1.94035
   A101       1.92206   0.00002   0.00017   0.00000   0.00017   1.92223
   A102       1.93551  -0.00000  -0.00015   0.00006  -0.00009   1.93542
   A103       1.86083  -0.00002  -0.00005  -0.00035  -0.00041   1.86043
   A104       1.80225   0.00005  -0.00000   0.00054   0.00054   1.80279
   A105       2.08584   0.00003   0.00004   0.00015   0.00018   2.08602
   A106       1.85310  -0.00004   0.00008  -0.00026  -0.00018   1.85291
   A107       1.96093  -0.00007   0.00005  -0.00051  -0.00047   1.96046
   A108       1.88760  -0.00001  -0.00007   0.00004  -0.00004   1.88756
   A109       1.86456   0.00003  -0.00010   0.00006  -0.00004   1.86452
   A110       1.91374  -0.00006   0.00008  -0.00036  -0.00028   1.91346
   A111       1.97433   0.00004  -0.00007   0.00044   0.00037   1.97470
   A112       1.87558   0.00001  -0.00003   0.00017   0.00014   1.87572
   A113       1.92671   0.00003  -0.00001  -0.00001  -0.00002   1.92669
   A114       1.88294   0.00001   0.00001  -0.00007  -0.00006   1.88288
   A115       1.88749  -0.00004   0.00002  -0.00017  -0.00015   1.88734
   A116       2.03401  -0.00003   0.00006  -0.00030  -0.00024   2.03377
   A117       1.90361   0.00002   0.00008   0.00019   0.00028   1.90389
   A118       1.88541   0.00001  -0.00010  -0.00000  -0.00010   1.88531
   A119       1.89297   0.00000   0.00003   0.00009   0.00012   1.89310
   A120       1.88905   0.00001   0.00004  -0.00011  -0.00006   1.88898
   A121       1.85030  -0.00000  -0.00014   0.00016   0.00002   1.85032
   A122       2.01964  -0.00002   0.00024  -0.00021   0.00002   2.01967
   A123       1.88306   0.00003  -0.00004   0.00021   0.00017   1.88323
   A124       1.91654  -0.00001  -0.00003  -0.00011  -0.00014   1.91640
   A125       1.90776  -0.00001  -0.00003  -0.00010  -0.00013   1.90764
   A126       1.88946   0.00002   0.00002   0.00005   0.00007   1.88953
   A127       1.83898  -0.00000  -0.00021   0.00020  -0.00001   1.83897
   A128       2.02987  -0.00004   0.00019  -0.00032  -0.00013   2.02974
   A129       1.89155   0.00001   0.00001  -0.00006  -0.00005   1.89150
   A130       1.90705   0.00000  -0.00002   0.00003   0.00001   1.90706
   A131       1.88671   0.00001  -0.00012   0.00001  -0.00011   1.88660
   A132       1.89136   0.00002   0.00005   0.00018   0.00022   1.89158
   A133       1.84897  -0.00000  -0.00014   0.00020   0.00007   1.84904
   A134       1.96067  -0.00001   0.00003  -0.00012  -0.00010   1.96057
   A135       1.92255  -0.00001   0.00002  -0.00013  -0.00011   1.92244
   A136       1.88922   0.00001   0.00001   0.00000   0.00002   1.88924
   A137       1.92795   0.00002   0.00007   0.00004   0.00011   1.92806
   A138       1.88371   0.00000  -0.00002   0.00012   0.00010   1.88381
   A139       1.87699  -0.00000  -0.00012   0.00011  -0.00001   1.87697
   A140       1.93367   0.00001  -0.00001   0.00003   0.00003   1.93369
   A141       1.95592   0.00001   0.00012  -0.00007   0.00005   1.95597
   A142       1.92949   0.00002   0.00005   0.00013   0.00018   1.92967
   A143       1.87861  -0.00001  -0.00015  -0.00005  -0.00020   1.87841
   A144       1.88063  -0.00001  -0.00001   0.00001   0.00000   1.88063
   A145       1.88277  -0.00001  -0.00001  -0.00006  -0.00007   1.88271
   A146       1.93136   0.00002   0.00005   0.00014   0.00019   1.93156
   A147       1.94218   0.00001   0.00010   0.00000   0.00010   1.94228
   A148       1.94058   0.00001   0.00006  -0.00001   0.00005   1.94063
   A149       1.88136  -0.00001  -0.00004   0.00001  -0.00003   1.88132
   A150       1.88124  -0.00001  -0.00004  -0.00000  -0.00004   1.88120
   A151       1.88471  -0.00002  -0.00014  -0.00014  -0.00028   1.88442
   A152       1.95445   0.00002  -0.00005   0.00013   0.00008   1.95453
   A153       1.93362   0.00001   0.00010   0.00011   0.00021   1.93383
   A154       1.94077   0.00001   0.00014  -0.00015  -0.00001   1.94076
   A155       1.88287  -0.00000   0.00005   0.00008   0.00014   1.88301
   A156       1.86879  -0.00004  -0.00026  -0.00018  -0.00044   1.86834
   A157       1.88008  -0.00001   0.00001  -0.00000   0.00000   1.88009
    D1       -3.09464   0.00000   0.00065   0.00014   0.00079  -3.09386
    D2       -1.02012   0.00000   0.00065  -0.00017   0.00048  -1.01964
    D3        1.25792   0.00002   0.00049  -0.00037   0.00011   1.25804
    D4       -1.00408  -0.00001   0.00060  -0.00010   0.00050  -1.00358
    D5        1.07045  -0.00002   0.00061  -0.00041   0.00020   1.07065
    D6       -2.93469  -0.00000   0.00044  -0.00062  -0.00017  -2.93487
    D7        1.10067   0.00001   0.00064   0.00021   0.00085   1.10152
    D8       -3.10799   0.00001   0.00064  -0.00009   0.00055  -3.10745
    D9       -0.82995   0.00002   0.00048  -0.00030   0.00018  -0.82977
   D10        1.07446  -0.00001  -0.00022  -0.00101  -0.00123   1.07324
   D11       -1.22918  -0.00000  -0.00015  -0.00165  -0.00180  -1.23098
   D12        3.10068  -0.00002  -0.00017  -0.00183  -0.00200   3.09868
   D13       -1.04624   0.00002  -0.00009  -0.00059  -0.00068  -1.04692
   D14        2.93330   0.00003  -0.00002  -0.00123  -0.00126   2.93205
   D15        0.97997   0.00000  -0.00004  -0.00141  -0.00145   0.97852
   D16        3.11475  -0.00004  -0.00021  -0.00094  -0.00115   3.11360
   D17        0.81111  -0.00003  -0.00015  -0.00159  -0.00173   0.80938
   D18       -1.14222  -0.00005  -0.00017  -0.00176  -0.00193  -1.14414
   D19       -1.15536  -0.00002  -0.00017   0.00072   0.00054  -1.15482
   D20        3.01739  -0.00003  -0.00031   0.00044   0.00014   3.01752
   D21        0.96871  -0.00003  -0.00014   0.00025   0.00010   0.96881
   D22        0.98229   0.00001  -0.00015   0.00080   0.00065   0.98294
   D23       -1.12815   0.00000  -0.00028   0.00053   0.00025  -1.12791
   D24        3.10636   0.00000  -0.00012   0.00033   0.00021   3.10657
   D25        2.90871   0.00002   0.00008   0.00124   0.00131   2.91002
   D26        0.79827   0.00001  -0.00006   0.00096   0.00090   0.79918
   D27       -1.25041   0.00001   0.00010   0.00077   0.00087  -1.24954
   D28        1.38009   0.00006   0.00022   0.00252   0.00274   1.38283
   D29       -0.81235   0.00008   0.00013   0.00264   0.00277  -0.80957
   D30       -2.91902   0.00005   0.00017   0.00269   0.00286  -2.91617
   D31       -0.68861   0.00002   0.00010   0.00200   0.00210  -0.68651
   D32       -2.88105   0.00005   0.00001   0.00212   0.00213  -2.87891
   D33        1.29546   0.00002   0.00005   0.00216   0.00221   1.29768
   D34       -2.67828   0.00002  -0.00006   0.00193   0.00186  -2.67642
   D35        1.41246   0.00004  -0.00015   0.00205   0.00190   1.41436
   D36       -0.69421   0.00001  -0.00011   0.00209   0.00198  -0.69223
   D37        0.99165  -0.00001   0.00024   0.00014   0.00038   0.99203
   D38        3.11008  -0.00002   0.00046  -0.00027   0.00019   3.11027
   D39       -1.09712  -0.00001   0.00030   0.00004   0.00034  -1.09678
   D40       -3.11410   0.00001   0.00005   0.00114   0.00119  -3.11292
   D41       -0.99568   0.00001   0.00026   0.00073   0.00100  -0.99468
   D42        1.08031   0.00001   0.00011   0.00104   0.00115   1.08146
   D43       -1.02781   0.00001   0.00001   0.00093   0.00094  -1.02687
   D44        1.09062   0.00000   0.00023   0.00052   0.00075   1.09137
   D45       -3.11658   0.00001   0.00007   0.00083   0.00090  -3.11568
   D46       -0.60532   0.00001   0.00010   0.00056   0.00067  -0.60465
   D47        1.47704   0.00002   0.00021   0.00077   0.00098   1.47802
   D48       -2.72173   0.00000   0.00009   0.00059   0.00067  -2.72106
   D49       -2.87279   0.00000   0.00036  -0.00010   0.00026  -2.87253
   D50       -0.79043   0.00001   0.00046   0.00011   0.00057  -0.78986
   D51        1.29398  -0.00001   0.00034  -0.00007   0.00027   1.29425
   D52        1.33049   0.00001   0.00038   0.00040   0.00078   1.33127
   D53       -2.87034   0.00002   0.00048   0.00060   0.00109  -2.86925
   D54       -0.78592   0.00001   0.00036   0.00043   0.00078  -0.78514
   D55       -3.10609   0.00002  -0.00002   0.00019   0.00017  -3.10592
   D56       -0.85375  -0.00004  -0.00009  -0.00012  -0.00021  -0.85396
   D57        1.17164  -0.00000  -0.00025   0.00004  -0.00021   1.17143
   D58        1.04764   0.00003  -0.00034   0.00064   0.00030   1.04795
   D59       -2.98320  -0.00003  -0.00040   0.00033  -0.00008  -2.98328
   D60       -0.95781   0.00000  -0.00057   0.00048  -0.00008  -0.95790
   D61       -1.01626   0.00003  -0.00016   0.00058   0.00042  -1.01583
   D62        1.23608  -0.00003  -0.00022   0.00026   0.00004   1.23613
   D63       -3.02171   0.00000  -0.00038   0.00042   0.00004  -3.02168
   D64       -2.85594  -0.00000  -0.00023  -0.00020  -0.00043  -2.85637
   D65        1.28585   0.00000  -0.00009  -0.00043  -0.00052   1.28533
   D66       -0.72475  -0.00001  -0.00021  -0.00052  -0.00073  -0.72548
   D67       -0.73869  -0.00002   0.00000  -0.00072  -0.00072  -0.73941
   D68       -2.88008  -0.00001   0.00014  -0.00094  -0.00080  -2.88089
   D69        1.39250  -0.00003   0.00002  -0.00104  -0.00102   1.39149
   D70        1.33788  -0.00001  -0.00009  -0.00073  -0.00081   1.33707
   D71       -0.80351  -0.00001   0.00005  -0.00095  -0.00090  -0.80441
   D72       -2.81411  -0.00002  -0.00007  -0.00105  -0.00111  -2.81522
   D73        1.33093   0.00000   0.00049  -0.00058  -0.00008   1.33085
   D74       -0.78108  -0.00001   0.00041  -0.00037   0.00004  -0.78104
   D75       -2.84466   0.00001   0.00024  -0.00035  -0.00011  -2.84477
   D76       -0.90919   0.00001   0.00045  -0.00017   0.00028  -0.90891
   D77       -3.02121   0.00000   0.00037   0.00004   0.00041  -3.02080
   D78        1.19840   0.00002   0.00020   0.00006   0.00025   1.19866
   D79       -2.94831   0.00001   0.00070  -0.00059   0.00011  -2.94820
   D80        1.22286   0.00000   0.00062  -0.00038   0.00023   1.22310
   D81       -0.84071   0.00002   0.00045  -0.00037   0.00008  -0.84064
   D82        0.87069   0.00003  -0.00037   0.00067   0.00030   0.87099
   D83        2.99557   0.00002  -0.00045   0.00052   0.00006   2.99563
   D84       -1.25979   0.00002  -0.00062   0.00067   0.00004  -1.25975
   D85        3.11647  -0.00000  -0.00030   0.00010  -0.00021   3.11627
   D86       -1.04183  -0.00001  -0.00038  -0.00006  -0.00045  -1.04228
   D87        0.98599  -0.00002  -0.00056   0.00009  -0.00047   0.98553
   D88       -1.14018   0.00001  -0.00037   0.00060   0.00023  -1.13995
   D89        0.98470  -0.00000  -0.00045   0.00044  -0.00001   0.98469
   D90        3.01253  -0.00001  -0.00063   0.00060  -0.00003   3.01250
   D91       -2.99240  -0.00002  -0.00065   0.00058  -0.00008  -2.99248
   D92       -0.90546  -0.00001  -0.00061   0.00052  -0.00009  -0.90555
   D93        1.20335  -0.00003  -0.00063   0.00038  -0.00025   1.20310
   D94       -0.86852  -0.00001  -0.00051   0.00040  -0.00011  -0.86863
   D95        1.21842  -0.00001  -0.00047   0.00035  -0.00012   1.21830
   D96       -2.95595  -0.00003  -0.00049   0.00021  -0.00028  -2.95624
   D97        1.19329   0.00002  -0.00038   0.00059   0.00021   1.19350
   D98       -3.00296   0.00003  -0.00034   0.00054   0.00020  -3.00276
   D99       -0.89414   0.00001  -0.00036   0.00039   0.00003  -0.89411
   D100       0.24593  -0.00001  -0.00023   0.00022  -0.00001   0.24592
   D101      -2.89793   0.00000  -0.00002  -0.00012  -0.00014  -2.89807
   D102      -1.89532   0.00008  -0.00013   0.00077   0.00063  -1.89468
   D103       1.24401   0.00009   0.00008   0.00043   0.00051   1.24451
   D104       2.31233  -0.00001  -0.00017   0.00027   0.00010   2.31243
   D105      -0.83153   0.00000   0.00004  -0.00007  -0.00003  -0.83156
   D106       2.94543   0.00007   0.00022   0.00081   0.00103   2.94646
   D107      -1.19524   0.00004   0.00030   0.00038   0.00067  -1.19456
   D108       0.82520   0.00005   0.00013   0.00059   0.00072   0.82591
   D109      -1.20663  -0.00003  -0.00013   0.00045   0.00033  -1.20630
   D110       0.93589  -0.00006  -0.00005   0.00002  -0.00003   0.93586
   D111       2.95632  -0.00006  -0.00022   0.00023   0.00001   2.95633
   D112       0.86201   0.00005  -0.00000   0.00071   0.00072   0.86272
   D113       3.00452   0.00002   0.00007   0.00028   0.00036   3.00488
   D114      -1.25822   0.00002  -0.00010   0.00050   0.00040  -1.25782
   D115       0.03337   0.00002  -0.00008  -0.00019  -0.00027   0.03310
   D116      -3.11519   0.00001  -0.00005  -0.00027  -0.00032  -3.11551
   D117      -3.10587   0.00001  -0.00030   0.00016  -0.00013  -3.10600
   D118       0.02876  -0.00000  -0.00027   0.00009  -0.00018   0.02857
   D119       0.90838  -0.00001  -0.00032  -0.00031  -0.00063   0.90775
   D120       3.05097  -0.00000  -0.00032  -0.00033  -0.00065   3.05032
   D121      -1.17788  -0.00004  -0.00066  -0.00070  -0.00136  -1.17924
   D122      -2.23542  -0.00000  -0.00012  -0.00064  -0.00076  -2.23618
   D123      -0.09283   0.00001  -0.00012  -0.00066  -0.00078  -0.09360
   D124       1.96151  -0.00003  -0.00045  -0.00103  -0.00148   1.96002
   D125       0.22409   0.00000   0.00022   0.00044   0.00066   0.22475
   D126       2.36904  -0.00001  -0.00001   0.00054   0.00053   2.36957
   D127      -1.90409  -0.00000   0.00010   0.00063   0.00073  -1.90336
   D128      -2.91070   0.00002   0.00020   0.00051   0.00071  -2.90999
   D129      -0.76574  -0.00000  -0.00003   0.00061   0.00058  -0.76516
   D130       1.24431   0.00001   0.00008   0.00071   0.00078   1.24509
   D131      -3.02002   0.00002  -0.00021   0.00124   0.00104  -3.01898
   D132      -0.95160  -0.00004   0.00070  -0.00013   0.00057  -0.95103
   D133       1.16123  -0.00001  -0.00015   0.00095   0.00080   1.16203
   D134       1.12915   0.00003  -0.00033   0.00147   0.00114   1.13029
   D135      -3.08562  -0.00003   0.00057   0.00010   0.00067  -3.08495
   D136      -0.97279   0.00000  -0.00028   0.00117   0.00090  -0.97189
   D137      -0.89477   0.00004   0.00008   0.00140   0.00148  -0.89329
   D138       1.17365  -0.00002   0.00098   0.00003   0.00101   1.17466
   D139      -2.99671   0.00001   0.00013   0.00111   0.00124  -2.99547
   D140      -1.06838   0.00000   0.00027  -0.00099  -0.00072  -1.06910
   D141       3.10605  -0.00003  -0.00025  -0.00055  -0.00080   3.10525
   D142       1.04159  -0.00000   0.00001  -0.00057  -0.00055   1.04104
   D143       0.98554   0.00001  -0.00070   0.00036  -0.00034   0.98519
   D144       3.10855   0.00001  -0.00058  -0.00008  -0.00065   3.10789
   D145      -1.14814   0.00001  -0.00097   0.00011  -0.00086  -1.14900
   D146       3.10329  -0.00001  -0.00004  -0.00063  -0.00068   3.10261
   D147      -1.05689  -0.00002   0.00008  -0.00107  -0.00099  -1.05787
   D148       0.96961  -0.00001  -0.00031  -0.00088  -0.00119   0.96842
   D149      -1.12594  -0.00001   0.00004  -0.00074  -0.00070  -1.12664
   D150       0.99708  -0.00002   0.00016  -0.00118  -0.00101   0.99606
   D151       3.02357  -0.00001  -0.00023  -0.00099  -0.00122   3.02235
   D152      -0.97679  -0.00001   0.00026  -0.00054  -0.00027  -0.97707
   D153      -3.12104  -0.00002   0.00027  -0.00046  -0.00020  -3.12124
   D154       1.13682   0.00000   0.00036  -0.00027   0.00008   1.13690
   D155      -3.09282  -0.00000   0.00022  -0.00015   0.00007  -3.09276
   D156       1.04612  -0.00001   0.00022  -0.00008   0.00014   1.04626
   D157      -0.97921   0.00001   0.00031   0.00011   0.00042  -0.97879
   D158       1.12825   0.00003   0.00045   0.00013   0.00058   1.12883
   D159      -1.01600   0.00002   0.00045   0.00020   0.00065  -1.01534
   D160      -3.04132   0.00004   0.00054   0.00039   0.00093  -3.04039
   D161      -0.95621  -0.00001   0.00047  -0.00094  -0.00048  -0.95669
   D162       1.14432   0.00000   0.00064  -0.00063   0.00000   1.14433
   D163      -3.11234  -0.00001   0.00041  -0.00053  -0.00012  -3.11246
   D164      -3.09222   0.00001   0.00061  -0.00085  -0.00024  -3.09245
   D165      -0.99168   0.00002   0.00078  -0.00054   0.00024  -0.99144
   D166       1.03484   0.00000   0.00056  -0.00043   0.00012   1.03496
   D167       1.18602   0.00001   0.00065  -0.00070  -0.00005   1.18597
   D168      -2.99662   0.00002   0.00082  -0.00039   0.00042  -2.99620
   D169      -0.97011   0.00000   0.00059  -0.00029   0.00031  -0.96980
   D170       0.15856  -0.00000   0.00001   0.00063   0.00065   0.15920
   D171       2.25712   0.00002   0.00019   0.00072   0.00092   2.25803
   D172      -1.95975   0.00000   0.00018   0.00033   0.00050  -1.95924
   D173      -1.91773  -0.00001  -0.00007   0.00031   0.00024  -1.91749
   D174       0.18083   0.00000   0.00011   0.00040   0.00051   0.18134
   D175       2.24715  -0.00001   0.00009   0.00000   0.00010   2.24725
   D176       2.27829   0.00000   0.00002   0.00061   0.00062   2.27891
   D177      -1.90634   0.00002   0.00020   0.00070   0.00089  -1.90545
   D178       0.15999   0.00000   0.00018   0.00030   0.00048   0.16046
   D179       0.33782  -0.00002  -0.00010  -0.00162  -0.00172   0.33610
   D180       2.60846   0.00002  -0.00002  -0.00138  -0.00140   2.60706
   D181      -1.62110   0.00000  -0.00016  -0.00158  -0.00174  -1.62284
   D182      -1.76867  -0.00002  -0.00017  -0.00165  -0.00182  -1.77050
   D183       0.50197   0.00001  -0.00009  -0.00141  -0.00150   0.50047
   D184       2.55559  -0.00000  -0.00023  -0.00161  -0.00185   2.55375
   D185       2.45901  -0.00000  -0.00012  -0.00126  -0.00137   2.45764
   D186      -1.55353   0.00003  -0.00004  -0.00101  -0.00105  -1.55458
   D187       0.50009   0.00002  -0.00018  -0.00122  -0.00140   0.49870
   D188       3.13534   0.00001   0.00164  -0.00004   0.00159   3.13694
   D189      -0.98898   0.00004   0.00163  -0.00001   0.00162  -0.98736
   D190       1.09311   0.00003   0.00159   0.00015   0.00174   1.09485
   D191       1.02032  -0.00002   0.00156  -0.00045   0.00111   1.02143
   D192      -3.10400  -0.00000   0.00156  -0.00043   0.00113  -3.10287
   D193      -1.02191  -0.00001   0.00152  -0.00027   0.00125  -1.02065
   D194      -1.04692   0.00001   0.00169  -0.00025   0.00144  -1.04548
   D195       1.11194   0.00003   0.00168  -0.00022   0.00147   1.11340
   D196      -3.08916   0.00002   0.00164  -0.00006   0.00159  -3.08757
   D197      -3.06476   0.00001  -0.00041  -0.00164  -0.00205  -3.06682
   D198      -0.91504   0.00000  -0.00025  -0.00158  -0.00184  -0.91687
   D199       1.08861   0.00002  -0.00043  -0.00130  -0.00173   1.08689
   D200       1.03189  -0.00002  -0.00037  -0.00194  -0.00231   1.02958
   D201      -3.10157  -0.00003  -0.00021  -0.00188  -0.00209  -3.10366
   D202      -1.09792  -0.00001  -0.00039  -0.00159  -0.00198  -1.09990
   D203      -1.02716   0.00000  -0.00039  -0.00168  -0.00207  -1.02923
   D204       1.12257  -0.00001  -0.00023  -0.00162  -0.00186   1.12071
   D205       3.12621   0.00001  -0.00041  -0.00134  -0.00175   3.12447
   D206       1.11520   0.00003   0.00010   0.00006   0.00016   1.11536
   D207      -0.98776   0.00001  -0.00001  -0.00021  -0.00022  -0.98798
   D208      -3.07804   0.00001  -0.00018  -0.00018  -0.00036  -3.07840
   D209      -3.01627   0.00001   0.00014  -0.00010   0.00004  -3.01623
   D210       1.16396  -0.00001   0.00004  -0.00037  -0.00033   1.16362
   D211      -0.92632  -0.00002  -0.00013  -0.00034  -0.00047  -0.92679
   D212      -0.96002   0.00001   0.00016  -0.00030  -0.00014  -0.96015
   D213      -3.06297  -0.00001   0.00006  -0.00057  -0.00051  -3.06349
   D214       1.12993  -0.00001  -0.00011  -0.00054  -0.00065   1.12928
   D215       1.01717   0.00000  -0.00113  -0.00031  -0.00144   1.01573
   D216      -3.12347  -0.00001  -0.00103  -0.00042  -0.00146  -3.12492
   D217      -1.12776  -0.00000  -0.00132  -0.00013  -0.00144  -1.12920
   D218      -1.13805  -0.00000  -0.00132  -0.00042  -0.00174  -1.13979
   D219       1.00449  -0.00001  -0.00121  -0.00054  -0.00175   1.00274
   D220       3.00020  -0.00001  -0.00150  -0.00024  -0.00174   2.99846
   D221      -3.13811  -0.00000  -0.00119  -0.00060  -0.00179  -3.13990
   D222      -0.99556  -0.00001  -0.00109  -0.00072  -0.00180  -0.99736
   D223       1.00015  -0.00001  -0.00137  -0.00042  -0.00179   0.99836
   D224       1.03836   0.00001  -0.00103  -0.00051  -0.00154   1.03682
   D225      -3.11612  -0.00000  -0.00105  -0.00076  -0.00181  -3.11793
   D226      -1.10896   0.00000  -0.00122  -0.00053  -0.00175  -1.11071
   D227      -1.09107  -0.00000  -0.00113  -0.00055  -0.00168  -1.09276
   D228       1.03763  -0.00001  -0.00115  -0.00080  -0.00195   1.03567
   D229       3.04479  -0.00001  -0.00132  -0.00057  -0.00189   3.04289
   D230      -3.08567  -0.00001  -0.00089  -0.00076  -0.00165  -3.08732
   D231      -0.95697  -0.00002  -0.00090  -0.00101  -0.00192  -0.95889
   D232       1.05019  -0.00001  -0.00107  -0.00079  -0.00186   1.04833
   D233       1.05882  -0.00000  -0.00066   0.00082   0.00015   1.05898
   D234      -3.06708   0.00000  -0.00054   0.00069   0.00015  -3.06693
   D235      -1.01933  -0.00000  -0.00066   0.00074   0.00008  -1.01925
   D236      -1.07242   0.00001  -0.00071   0.00110   0.00039  -1.07204
   D237       1.08486   0.00001  -0.00059   0.00097   0.00038   1.08524
   D238       3.13260   0.00001  -0.00071   0.00103   0.00032   3.13292
   D239      -3.06888  -0.00001  -0.00051   0.00077   0.00025  -3.06863
   D240      -0.91160  -0.00000  -0.00039   0.00064   0.00025  -0.91135
   D241       1.13614  -0.00001  -0.00052   0.00069   0.00018   1.13632
   D242       3.11472   0.00000  -0.00008   0.00049   0.00042   3.11514
   D243      -1.06990  -0.00001  -0.00019   0.00040   0.00021  -1.06969
   D244       1.03108  -0.00001  -0.00009   0.00037   0.00028   1.03136
   D245       0.96045   0.00001  -0.00017   0.00072   0.00054   0.96100
   D246       3.05902   0.00000  -0.00029   0.00063   0.00034   3.05936
   D247      -1.12318   0.00000  -0.00019   0.00060   0.00041  -1.12277
   D248      -1.08708   0.00000  -0.00006   0.00050   0.00044  -1.08664
   D249       1.01148  -0.00000  -0.00017   0.00041   0.00024   1.01172
   D250       3.11247  -0.00000  -0.00007   0.00037   0.00031   3.11277
   D251      -1.09126   0.00000   0.00003   0.00024   0.00026  -1.09099
   D252       1.00006   0.00001   0.00008   0.00034   0.00041   1.00048
   D253       3.10181  -0.00000   0.00001   0.00015   0.00016   3.10197
   D254       1.08493  -0.00001   0.00013   0.00002   0.00014   1.08508
   D255      -3.10693   0.00000   0.00017   0.00012   0.00029  -3.10664
   D256      -1.00519  -0.00001   0.00010  -0.00007   0.00004  -1.00515
   D257       3.13661   0.00000   0.00007   0.00024   0.00031   3.13692
   D258      -1.05525   0.00001   0.00012   0.00034   0.00046  -1.05479
   D259       1.04649  -0.00000   0.00005   0.00016   0.00021   1.04670
         Item               Value     Threshold  Converged?
 Maximum Force            0.000176     0.000450     YES
 RMS     Force            0.000030     0.000300     YES
 Maximum Displacement     0.012397     0.001800     NO 
 RMS     Displacement     0.002345     0.001200     NO 
 Predicted change in Energy=-1.930665D-06
 Lowest energy point so far.  Saving SCF results.
 GradGradGradGradGradGradGradGradGradGradGradGradGradGradGradGradGradGrad

 Leave Link  103 at Mon Jul 28 19:06:08 2025, MaxMem=  1073741824 cpu:               1.2 elap:               0.2
 (Enter /app/gaussian/g16/l202.exe)
 Stoichiometry    C27H46O
 Framework group  C1[X(C27H46O)]
 Deg. of freedom   216
 Full point group                 C1      NOp   1
 RotChk:  IX=0 Diff= 1.36D-03
 Largest Abelian subgroup         C1      NOp   1
 Largest concise Abelian subgroup C1      NOp   1
                         Standard orientation:                         
 ---------------------------------------------------------------------
 Center     Atomic      Atomic             Coordinates (Angstroms)
 Number     Number       Type             X           Y           Z
 ---------------------------------------------------------------------
      1          6           0       -0.994110   -0.309357    1.458478
      2          6           0       -0.734099   -0.405620   -0.066042
      3          6           0        0.100688    0.799360   -0.605850
      4          6           0        1.509352    0.942243   -0.004979
      5          6           0        2.313686   -0.370593   -0.237631
      6          6           0        3.753720   -0.318007    0.397580
      7          6           0        3.706801   -0.505289    1.942885
      8          6           0        4.422117    1.032803    0.079602
      9          6           0        3.743287    2.093745   -0.393848
     10          6           0        2.258471    2.132955   -0.639076
     11          6           0        5.919772    1.123780    0.331625
     12          6           0        6.690138   -0.019273   -0.348173
     13          8           0        8.108200   -0.014681    0.038531
     14          6           0        6.126512   -1.371105    0.072368
     15          6           0        4.620506   -1.456261   -0.241245
     16          6           0        1.505350   -1.627472    0.177630
     17          6           0        0.072958   -1.681247   -0.407877
     18          6           0       -0.864478    1.998058   -0.526665
     19          6           0       -2.257106    1.375096   -0.845347
     20          6           0       -2.076299   -0.187866   -0.861760
     21          6           0       -3.364524   -0.936852   -0.412227
     22          6           0       -4.546941   -0.551069   -1.347522
     23          6           0       -5.934262   -1.128214   -0.981001
     24          6           0       -6.460041   -0.767405    0.426394
     25          6           0       -6.630119    0.742238    0.729237
     26          6           0       -7.635314    1.421348   -0.223045
     27          6           0       -7.056910    0.944854    2.198151
     28          6           0       -3.191093   -2.469444   -0.369124
     29          1           0       -1.539112   -1.192402    1.812156
     30          1           0       -0.064879   -0.247926    2.032345
     31          1           0       -1.594255    0.571073    1.712420
     32          1           0        0.251991    0.587448   -1.681027
     33          1           0        1.426575    1.129091    1.076527
     34          1           0        2.469546   -0.433955   -1.329712
     35          1           0        4.684937   -0.319112    2.396229
     36          1           0        2.995743    0.190727    2.401008
     37          1           0        3.413059   -1.526311    2.210202
     38          1           0        4.292708    3.009348   -0.618145
     39          1           0        1.847776    3.078934   -0.257487
     40          1           0        2.065446    2.145298   -1.726412
     41          1           0        6.291670    2.096379   -0.018864
     42          1           0        6.140616    1.066597    1.407836
     43          1           0        6.620212    0.087975   -1.442075
     44          1           0        8.544650    0.817936   -0.233189
     45          1           0        6.666529   -2.170245   -0.449384
     46          1           0        6.317043   -1.508467    1.144595
     47          1           0        4.240443   -2.429816    0.090898
     48          1           0        4.483416   -1.418288   -1.332519
     49          1           0        2.042729   -2.530702   -0.138562
     50          1           0        1.437090   -1.680188    1.270734
     51          1           0        0.126046   -1.780001   -1.503385
     52          1           0       -0.420915   -2.584985   -0.033827
     53          1           0       -0.849230    2.442322    0.477875
     54          1           0       -0.598729    2.794111   -1.231246
     55          1           0       -2.996351    1.662119   -0.085961
     56          1           0       -2.640559    1.734120   -1.806707
     57          1           0       -1.871554   -0.499479   -1.900930
     58          1           0       -3.610425   -0.591046    0.603770
     59          1           0       -4.626328    0.541723   -1.392996
     60          1           0       -4.295348   -0.880410   -2.368696
     61          1           0       -6.653982   -0.783725   -1.737039
     62          1           0       -5.917859   -2.222770   -1.072174
     63          1           0       -7.436849   -1.257087    0.568351
     64          1           0       -5.791844   -1.200347    1.185522
     65          1           0       -5.652958    1.232719    0.596785
     66          1           0       -7.756530    2.482050    0.030501
     67          1           0       -7.314039    1.364875   -1.269294
     68          1           0       -8.622237    0.943732   -0.147037
     69          1           0       -8.033161    0.477009    2.386470
     70          1           0       -6.331523    0.496917    2.889160
     71          1           0       -7.143478    2.011004    2.442548
     72          1           0       -2.451718   -2.776852    0.374945
     73          1           0       -2.866272   -2.852957   -1.346113
     74          1           0       -4.132077   -2.967419   -0.111566
 ---------------------------------------------------------------------
 Rotational constants (GHZ):           0.5329376           0.0601970           0.0579306
 Leave Link  202 at Mon Jul 28 19:06:08 2025, MaxMem=  1073741824 cpu:               0.1 elap:               0.0
 (Enter /app/gaussian/g16/l301.exe)
 Standard basis: 6-31+G (6D, 7F)
 Ernie: Thresh=  0.10000D-02 Tol=  0.10000D-05 Strict=F.
 There are   456 symmetry adapted cartesian basis functions of A   symmetry.
 There are   456 symmetry adapted basis functions of A   symmetry.
   456 basis functions,   912 primitive gaussians,   456 cartesian basis functions
   108 alpha electrons      108 beta electrons
       nuclear repulsion energy      2810.3546295705 Hartrees.
 IExCor=  402 DFT=T Ex+Corr=B3LYP ExCW=0 ScaHFX=  0.200000
 ScaDFX=  0.800000  0.720000  1.000000  0.810000 ScalE2=  1.000000  1.000000
 IRadAn=      5 IRanWt=     -1 IRanGd=            0 ICorTp=0 IEmpDi=  4
 NAtoms=   74 NActive=   74 NUniq=   74 SFac= 1.00D+00 NAtFMM=   60 NAOKFM=T Big=T
 Integral buffers will be    131072 words long.
 Raffenetti 2 integral format.
 Two-electron integral symmetry is turned on.
 Leave Link  301 at Mon Jul 28 19:06:08 2025, MaxMem=  1073741824 cpu:               0.4 elap:               0.1
 (Enter /app/gaussian/g16/l302.exe)
 NPDir=0 NMtPBC=     1 NCelOv=     1 NCel=       1 NClECP=     1 NCelD=      1
         NCelK=      1 NCelE2=     1 NClLst=     1 CellRange=     0.0.
 One-electron integrals computed using PRISM.
 One-electron integral symmetry used in STVInt
 NBasis=   456 RedAO= T EigKep=  1.02D-06  NBF=   456
 NBsUse=   455 1.00D-06 EigRej=  5.94D-07 NBFU=   455
 Precomputing XC quadrature grid using
 IXCGrd= 4 IRadAn=           5 IRanWt=          -1 IRanGd=           0 AccXCQ= 0.00D+00.
 Generated NRdTot=       0 NPtTot=           0 NUsed=           0 NTot=          32
 NSgBfM=   441   440   440   441   441 MxSgAt=    74 MxSgA2=    74.
 Leave Link  302 at Mon Jul 28 19:06:10 2025, MaxMem=  1073741824 cpu:              11.7 elap:               1.5
 (Enter /app/gaussian/g16/l303.exe)
 DipDrv:  MaxL=1.
 Leave Link  303 at Mon Jul 28 19:06:10 2025, MaxMem=  1073741824 cpu:               0.5 elap:               0.1
 (Enter /app/gaussian/g16/l401.exe)
 Initial guess from the checkpoint file:  "/work/scr/Gau-255599.chk"
 B after Tr=    -0.000000   -0.000000    0.000000
         Rot=    1.000000   -0.000483   -0.000002    0.000031 Ang=  -0.06 deg.
 Guess basis will be translated and rotated to current coordinates.
 JPrj=2 DoOrth=T DoCkMO=T.
 Leave Link  401 at Mon Jul 28 19:06:10 2025, MaxMem=  1073741824 cpu:               3.4 elap:               0.4
 (Enter /app/gaussian/g16/l502.exe)
 Integral symmetry usage will be decided dynamically.
 Closed shell SCF:
 Using DIIS extrapolation, IDIIS=  1040.
 NGot=  1073741824 LenX=  1073314746 LenY=  1073106354
 Requested convergence on RMS density matrix=1.00D-08 within 128 cycles.
 Requested convergence on MAX density matrix=1.00D-06.
 Requested convergence on             energy=1.00D-06.
 No special actions if energy rises.
 Fock matrices will be formed incrementally for  20 cycles.

 Cycle   1  Pass 1  IDiag  1:
 FoFJK:  IHMeth= 1 ICntrl=       0 DoSepK=F KAlg= 0 I1Cent=           0 FoldK=F
 IRaf= 990000000 NMat=       1 IRICut=       1 DoRegI=T DoRafI=F ISym2E= 0 IDoP0=0 IntGTp=1.
 FoFCou: FMM=T IPFlag=           0 FMFlag=      100000 FMFlg1=        2001
         NFxFlg=           0 DoJE=F BraDBF=F KetDBF=F FulRan=T
         wScrn=  0.000000 ICntrl=         0 IOpCl=  0 I1Cent=           0 NGrid=           0
         NMat0=    1 NMatS0=      1 NMatT0=    0 NMatD0=    1 NMtDS0=    0 NMtDT0=    0
 Symmetry not used in FoFCou.
 FMM levels:  10  Number of levels for PrismC:   9
 E= -1131.55721721001    
 DIIS: error= 5.49D-04 at cycle   1 NSaved=   1.
 NSaved= 1 IEnMin= 1 EnMin= -1131.55721721001     IErMin= 1 ErrMin= 5.49D-04
 ErrMax= 5.49D-04  0.00D+00 EMaxC= 1.00D-01 BMatC= 5.33D-05 BMatP= 5.33D-05
 IDIUse=3 WtCom= 9.95D-01 WtEn= 5.49D-03
 Coeff-Com:  0.100D+01
 Coeff-En:   0.100D+01
 Coeff:      0.100D+01
 Gap=     0.521 Goal=   None    Shift=    0.000
 RMSDP=3.95D-04 MaxDP=5.53D-02              OVMax= 1.14D-03

 Cycle   2  Pass 1  IDiag  1:
 RMSU=  3.91D-04    CP:  1.00D+00
 E= -1131.55725481915     Delta-E=       -0.000037609132 Rises=F Damp=F
 DIIS: error= 1.30D-05 at cycle   2 NSaved=   2.
 NSaved= 2 IEnMin= 2 EnMin= -1131.55725481915     IErMin= 2 ErrMin= 1.30D-05
 ErrMax= 1.30D-05  0.00D+00 EMaxC= 1.00D-01 BMatC= 1.83D-07 BMatP= 5.33D-05
 IDIUse=1 WtCom= 1.00D+00 WtEn= 0.00D+00
 Coeff-Com: -0.982D-02 0.101D+01
 Coeff:     -0.982D-02 0.101D+01
 Gap=     0.231 Goal=   None    Shift=    0.000
 RMSDP=5.44D-05 MaxDP=6.10D-03 DE=-3.76D-05 OVMax= 1.32D-04

 Cycle   3  Pass 1  IDiag  1:
 RMSU=  5.17D-05    CP:  1.00D+00  9.90D-01
 E= -1131.55725491913     Delta-E=       -0.000000099988 Rises=F Damp=F
 DIIS: error= 1.38D-05 at cycle   3 NSaved=   3.
 NSaved= 3 IEnMin= 3 EnMin= -1131.55725491913     IErMin= 2 ErrMin= 1.30D-05
 ErrMax= 1.38D-05  0.00D+00 EMaxC= 1.00D-01 BMatC= 1.96D-07 BMatP= 1.83D-07
 IDIUse=1 WtCom= 1.00D+00 WtEn= 0.00D+00
 Coeff-Com: -0.782D-02 0.520D+00 0.488D+00
 Coeff:     -0.782D-02 0.520D+00 0.488D+00
 Gap=     0.231 Goal=   None    Shift=    0.000
 RMSDP=2.43D-05 MaxDP=2.28D-03 DE=-1.00D-07 OVMax= 5.93D-05

 Cycle   4  Pass 1  IDiag  1:
 RMSU=  1.26D-05    CP:  1.00D+00  1.01D+00  6.54D-01
 E= -1131.55725512504     Delta-E=       -0.000000205903 Rises=F Damp=F
 DIIS: error= 2.24D-06 at cycle   4 NSaved=   4.
 NSaved= 4 IEnMin= 4 EnMin= -1131.55725512504     IErMin= 4 ErrMin= 2.24D-06
 ErrMax= 2.24D-06  0.00D+00 EMaxC= 1.00D-01 BMatC= 4.07D-09 BMatP= 1.83D-07
 IDIUse=1 WtCom= 1.00D+00 WtEn= 0.00D+00
 Coeff-Com: -0.101D-02 0.296D-01 0.129D+00 0.842D+00
 Coeff:     -0.101D-02 0.296D-01 0.129D+00 0.842D+00
 Gap=     0.231 Goal=   None    Shift=    0.000
 RMSDP=6.27D-06 MaxDP=7.60D-04 DE=-2.06D-07 OVMax= 1.45D-05

 Cycle   5  Pass 1  IDiag  1:
 RMSU=  4.71D-06    CP:  1.00D+00  1.01D+00  6.40D-01  7.01D-01
 E= -1131.55725512904     Delta-E=       -0.000000004007 Rises=F Damp=F
 DIIS: error= 1.09D-06 at cycle   5 NSaved=   5.
 NSaved= 5 IEnMin= 5 EnMin= -1131.55725512904     IErMin= 5 ErrMin= 1.09D-06
 ErrMax= 1.09D-06  0.00D+00 EMaxC= 1.00D-01 BMatC= 6.33D-10 BMatP= 4.07D-09
 IDIUse=1 WtCom= 1.00D+00 WtEn= 0.00D+00
 Coeff-Com: -0.125D-03-0.101D-01 0.392D-01 0.398D+00 0.573D+00
 Coeff:     -0.125D-03-0.101D-01 0.392D-01 0.398D+00 0.573D+00
 Gap=     0.231 Goal=   None    Shift=    0.000
 RMSDP=1.64D-06 MaxDP=1.49D-04 DE=-4.01D-09 OVMax= 1.31D-05

 Cycle   6  Pass 1  IDiag  1:
 RMSU=  8.57D-07    CP:  1.00D+00  1.01D+00  6.44D-01  7.76D-01  7.89D-01
 E= -1131.55725512954     Delta-E=       -0.000000000498 Rises=F Damp=F
 DIIS: error= 7.30D-07 at cycle   6 NSaved=   6.
 NSaved= 6 IEnMin= 6 EnMin= -1131.55725512954     IErMin= 6 ErrMin= 7.30D-07
 ErrMax= 7.30D-07  0.00D+00 EMaxC= 1.00D-01 BMatC= 1.25D-10 BMatP= 6.33D-10
 IDIUse=1 WtCom= 1.00D+00 WtEn= 0.00D+00
 Coeff-Com:  0.280D-04-0.905D-02 0.102D-01 0.151D+00 0.348D+00 0.500D+00
 Coeff:      0.280D-04-0.905D-02 0.102D-01 0.151D+00 0.348D+00 0.500D+00
 Gap=     0.231 Goal=   None    Shift=    0.000
 RMSDP=7.27D-07 MaxDP=9.44D-05 DE=-4.98D-10 OVMax= 6.68D-06

 Cycle   7  Pass 1  IDiag  1:
 RMSU=  2.71D-07    CP:  1.00D+00  1.01D+00  6.52D-01  7.86D-01  7.44D-01
                    CP:  6.09D-01
 E= -1131.55725512972     Delta-E=       -0.000000000179 Rises=F Damp=F
 DIIS: error= 1.90D-07 at cycle   7 NSaved=   7.
 NSaved= 7 IEnMin= 7 EnMin= -1131.55725512972     IErMin= 7 ErrMin= 1.90D-07
 ErrMax= 1.90D-07  0.00D+00 EMaxC= 1.00D-01 BMatC= 9.57D-12 BMatP= 1.25D-10
 IDIUse=1 WtCom= 1.00D+00 WtEn= 0.00D+00
 Coeff-Com:  0.256D-04-0.471D-02 0.337D-02 0.616D-01 0.167D+00 0.298D+00
 Coeff-Com:  0.474D+00
 Coeff:      0.256D-04-0.471D-02 0.337D-02 0.616D-01 0.167D+00 0.298D+00
 Coeff:      0.474D+00
 Gap=     0.231 Goal=   None    Shift=    0.000
 RMSDP=1.22D-07 MaxDP=8.69D-06 DE=-1.79D-10 OVMax= 1.50D-06

 Cycle   8  Pass 1  IDiag  1:
 RMSU=  9.07D-08    CP:  1.00D+00  1.01D+00  6.53D-01  7.84D-01  7.49D-01
                    CP:  6.07D-01  7.99D-01
 E= -1131.55725512958     Delta-E=        0.000000000146 Rises=F Damp=F
 DIIS: error= 1.72D-08 at cycle   8 NSaved=   8.
 NSaved= 8 IEnMin= 7 EnMin= -1131.55725512972     IErMin= 8 ErrMin= 1.72D-08
 ErrMax= 1.72D-08  0.00D+00 EMaxC= 1.00D-01 BMatC= 2.82D-13 BMatP= 9.57D-12
 IDIUse=1 WtCom= 1.00D+00 WtEn= 0.00D+00
 Coeff-Com:  0.675D-05-0.896D-03 0.253D-03 0.809D-02 0.290D-01 0.662D-01
 Coeff-Com:  0.189D+00 0.708D+00
 Coeff:      0.675D-05-0.896D-03 0.253D-03 0.809D-02 0.290D-01 0.662D-01
 Coeff:      0.189D+00 0.708D+00
 Gap=     0.231 Goal=   None    Shift=    0.000
 RMSDP=6.64D-08 MaxDP=7.88D-06 DE= 1.46D-10 OVMax= 1.48D-07

 Cycle   9  Pass 1  IDiag  1:
 RMSU=  3.55D-08    CP:  1.00D+00  1.01D+00  6.52D-01  7.85D-01  7.53D-01
                    CP:  6.21D-01  7.74D-01  7.59D-01
 E= -1131.55725513006     Delta-E=       -0.000000000483 Rises=F Damp=F
 DIIS: error= 8.03D-09 at cycle   9 NSaved=   9.
 NSaved= 9 IEnMin= 9 EnMin= -1131.55725513006     IErMin= 9 ErrMin= 8.03D-09
 ErrMax= 8.03D-09  0.00D+00 EMaxC= 1.00D-01 BMatC= 3.58D-14 BMatP= 2.82D-13
 IDIUse=1 WtCom= 1.00D+00 WtEn= 0.00D+00
 Coeff-Com:  0.169D-05-0.136D-03-0.956D-04-0.143D-04 0.346D-02 0.134D-01
 Coeff-Com:  0.615D-01 0.348D+00 0.574D+00
 Coeff:      0.169D-05-0.136D-03-0.956D-04-0.143D-04 0.346D-02 0.134D-01
 Coeff:      0.615D-01 0.348D+00 0.574D+00
 Gap=     0.231 Goal=   None    Shift=    0.000
 RMSDP=1.20D-08 MaxDP=7.69D-07 DE=-4.83D-10 OVMax= 3.41D-08

 Cycle  10  Pass 1  IDiag  1:
 RMSU=  7.18D-09    CP:  1.00D+00  1.01D+00  6.52D-01  7.85D-01  7.53D-01
                    CP:  6.19D-01  7.78D-01  8.05D-01  8.40D-01
 E= -1131.55725512980     Delta-E=        0.000000000257 Rises=F Damp=F
 DIIS: error= 3.05D-09 at cycle  10 NSaved=  10.
 NSaved=10 IEnMin= 9 EnMin= -1131.55725513006     IErMin=10 ErrMin= 3.05D-09
 ErrMax= 3.05D-09  0.00D+00 EMaxC= 1.00D-01 BMatC= 5.00D-15 BMatP= 3.58D-14
 IDIUse=1 WtCom= 1.00D+00 WtEn= 0.00D+00
 Coeff-Com: -0.102D-06 0.617D-04-0.905D-04-0.123D-02-0.246D-02-0.246D-02
 Coeff-Com:  0.547D-02 0.864D-01 0.307D+00 0.607D+00
 Coeff:     -0.102D-06 0.617D-04-0.905D-04-0.123D-02-0.246D-02-0.246D-02
 Coeff:      0.547D-02 0.864D-01 0.307D+00 0.607D+00
 Gap=     0.231 Goal=   None    Shift=    0.000
 RMSDP=4.60D-09 MaxDP=4.08D-07 DE= 2.57D-10 OVMax= 1.33D-08

 SCF Done:  E(RB3LYP) =  -1131.55725513     A.U. after   10 cycles
            NFock= 10  Conv=0.46D-08     -V/T= 2.0059
 KE= 1.124918024920D+03 PE=-8.242468379814D+03 EE= 3.175638470193D+03
 Leave Link  502 at Mon Jul 28 19:09:25 2025, MaxMem=  1073741824 cpu:            1553.0 elap:             194.8
 (Enter /app/gaussian/g16/l701.exe)
 ... and contract with generalized density number  0.
 Compute integral first derivatives.
 Leave Link  701 at Mon Jul 28 19:09:25 2025, MaxMem=  1073741824 cpu:               1.8 elap:               0.3
 (Enter /app/gaussian/g16/l702.exe)
 L702 exits ... SP integral derivatives will be done elsewhere.
 Leave Link  702 at Mon Jul 28 19:09:25 2025, MaxMem=  1073741824 cpu:               0.2 elap:               0.0
 (Enter /app/gaussian/g16/l703.exe)
 Integral derivatives from FoFJK, PRISM(SPDF).
 Compute integral first derivatives, UseDBF=F ICtDFT=           0.
 Calling FoFJK, ICntrl=      2127 FMM=T ISym2X=0 I1Cent= 0 IOpClX= 0 NMat=1 NMatS=1 NMatT=0.
 FoFJK:  IHMeth= 1 ICntrl=    2127 DoSepK=F KAlg= 0 I1Cent=           0 FoldK=F
 IRaf=         0 NMat=       1 IRICut=       1 DoRegI=T DoRafI=F ISym2E= 0 IDoP0=0 IntGTp=1.
 FoFCou: FMM=T IPFlag=           0 FMFlag=      100000 FMFlg1=        2001
         NFxFlg=           0 DoJE=F BraDBF=F KetDBF=F FulRan=T
         wScrn=  0.000000 ICntrl=      2127 IOpCl=  0 I1Cent=           0 NGrid=           0
         NMat0=    1 NMatS0=      1 NMatT0=    0 NMatD0=    1 NMtDS0=    0 NMtDT0=    0
 Symmetry not used in FoFCou.
 FMM levels:  10  Number of levels for PrismC:   9
 Leave Link  703 at Mon Jul 28 19:10:16 2025, MaxMem=  1073741824 cpu:             405.2 elap:              50.8
 (Enter /app/gaussian/g16/l716.exe)
 Dipole        =-5.86583063D-01 4.51220671D-01-3.15044696D-01
 ***** Axes restored to original set *****
 -------------------------------------------------------------------
 Center     Atomic                   Forces (Hartrees/Bohr)
 Number     Number              X              Y              Z
 -------------------------------------------------------------------
      1        6          -0.000020685   -0.000017498   -0.000029138
      2        6           0.000027697   -0.000034368    0.000010334
      3        6           0.000033586    0.000050976   -0.000024665
      4        6          -0.000019881   -0.000026539    0.000024169
      5        6          -0.000012462    0.000025438    0.000005371
      6        6          -0.000002450   -0.000006578   -0.000010999
      7        6           0.000009174    0.000026120   -0.000033737
      8        6           0.000030552   -0.000023248   -0.000016839
      9        6          -0.000065210   -0.000019453    0.000030879
     10        6           0.000047432    0.000003737    0.000000720
     11        6          -0.000008684    0.000051562   -0.000022634
     12        6           0.000093961   -0.000001365    0.000043344
     13        8          -0.000026665   -0.000023826    0.000024113
     14        6          -0.000016915   -0.000035735   -0.000019041
     15        6           0.000009758    0.000000441    0.000015550
     16        6          -0.000032550    0.000009545    0.000018366
     17        6           0.000007076   -0.000009186    0.000000294
     18        6          -0.000002085   -0.000003685    0.000029102
     19        6           0.000007564   -0.000012818    0.000022250
     20        6          -0.000056174    0.000016721   -0.000014305
     21        6           0.000011620    0.000016524    0.000024860
     22        6           0.000013578    0.000012611   -0.000008955
     23        6           0.000002727   -0.000020635   -0.000009656
     24        6           0.000003514   -0.000003193   -0.000003537
     25        6          -0.000003070    0.000016844   -0.000007964
     26        6          -0.000009906   -0.000002899    0.000026345
     27        6           0.000011117   -0.000000670   -0.000006571
     28        6          -0.000019126   -0.000017757   -0.000016623
     29        1           0.000005448    0.000002633    0.000009187
     30        1           0.000015241   -0.000018068    0.000009809
     31        1           0.000003440   -0.000019735    0.000000054
     32        1           0.000002769    0.000006527   -0.000002062
     33        1          -0.000000728   -0.000003680    0.000007695
     34        1          -0.000001968    0.000014204   -0.000008571
     35        1          -0.000002472    0.000001183    0.000014556
     36        1           0.000004190   -0.000003076    0.000001801
     37        1           0.000010493    0.000011158    0.000016692
     38        1          -0.000002788   -0.000001093   -0.000003393
     39        1          -0.000004955    0.000001982   -0.000010204
     40        1           0.000002072    0.000007331   -0.000004875
     41        1          -0.000009915   -0.000016084   -0.000021064
     42        1          -0.000006550   -0.000003710    0.000008297
     43        1          -0.000005071   -0.000005881   -0.000020483
     44        1          -0.000010775    0.000004282   -0.000013492
     45        1          -0.000009074    0.000018666   -0.000000622
     46        1           0.000000393    0.000009324    0.000003845
     47        1           0.000013900    0.000009337    0.000003951
     48        1           0.000011739   -0.000009342   -0.000003492
     49        1          -0.000021641    0.000001160   -0.000004725
     50        1          -0.000012134    0.000013437   -0.000008757
     51        1          -0.000005345    0.000001200   -0.000000746
     52        1           0.000022918    0.000009611    0.000004328
     53        1           0.000001217   -0.000004087    0.000014612
     54        1          -0.000002831   -0.000006514   -0.000008865
     55        1          -0.000000971   -0.000004925   -0.000000345
     56        1           0.000000805    0.000000935   -0.000006281
     57        1           0.000004651    0.000008243   -0.000015337
     58        1           0.000000667   -0.000003451    0.000008067
     59        1          -0.000000673    0.000000545    0.000006574
     60        1           0.000004311    0.000009376   -0.000019558
     61        1           0.000018144   -0.000004128   -0.000001335
     62        1          -0.000002171   -0.000001123   -0.000014703
     63        1           0.000013593    0.000010381    0.000001682
     64        1          -0.000006736    0.000000478    0.000005354
     65        1          -0.000004455   -0.000011577   -0.000002135
     66        1           0.000004894   -0.000011812   -0.000003358
     67        1          -0.000005111    0.000004440   -0.000004855
     68        1           0.000003299    0.000002834    0.000000213
     69        1           0.000003161    0.000004741   -0.000002254
     70        1          -0.000011232    0.000004101   -0.000001230
     71        1           0.000000887   -0.000012824   -0.000001977
     72        1          -0.000023790    0.000008743    0.000006773
     73        1           0.000000898    0.000003738    0.000002164
     74        1          -0.000011235   -0.000000547    0.000008029
 -------------------------------------------------------------------
 Cartesian Forces:  Max     0.000093961 RMS     0.000016751
 Leave Link  716 at Mon Jul 28 19:10:16 2025, MaxMem=  1073741824 cpu:               0.2 elap:               0.0
 (Enter /app/gaussian/g16/l103.exe)

 GradGradGradGradGradGradGradGradGradGradGradGradGradGradGradGradGradGrad
 Berny optimization.
 Using GEDIIS/GDIIS optimizer.
 FormGI is forming the generalized inverse of G from B-inverse, IUseBI=4.
 Internal  Forces:  Max     0.000060815 RMS     0.000011634
 Search for a local minimum.
 Step number   7 out of a maximum of  444
 All quantities printed in internal units (Hartrees-Bohrs-Radians)
 RMS Force = .11634D-04 SwitMx=.10000D-02 MixMth= 2
 Mixed Optimization -- En-DIIS/RFO-DIIS
 Swapping is turned off.
 Update second derivatives using D2CorX and points    1    2    3    4    5
                                                      6    7
 DE= -1.85D-06 DEPred=-1.93D-06 R= 9.58D-01
 TightC=F SS=  1.41D+00  RLast= 1.66D-02 DXNew= 1.3636D+00 4.9706D-02
 Trust test= 9.58D-01 RLast= 1.66D-02 DXMaxT set to 8.11D-01
 ITU=  1  1  1  0  1  1  0
     Eigenvalues ---    0.00222   0.00231   0.00234   0.00235   0.00288
     Eigenvalues ---    0.00308   0.00333   0.00351   0.00356   0.00379
     Eigenvalues ---    0.00403   0.00463   0.00505   0.00534   0.00569
     Eigenvalues ---    0.00655   0.00712   0.00992   0.01205   0.01326
     Eigenvalues ---    0.01508   0.01633   0.01729   0.02202   0.02317
     Eigenvalues ---    0.02443   0.02684   0.03067   0.03119   0.03160
     Eigenvalues ---    0.03180   0.03246   0.03406   0.03481   0.03519
     Eigenvalues ---    0.03659   0.03751   0.03861   0.03881   0.04282
     Eigenvalues ---    0.04344   0.04399   0.04482   0.04598   0.04639
     Eigenvalues ---    0.04675   0.04692   0.04702   0.04719   0.04729
     Eigenvalues ---    0.04777   0.04814   0.04826   0.04925   0.04968
     Eigenvalues ---    0.05052   0.05097   0.05219   0.05271   0.05356
     Eigenvalues ---    0.05385   0.05419   0.05425   0.05428   0.05440
     Eigenvalues ---    0.05464   0.05497   0.05528   0.05537   0.05546
     Eigenvalues ---    0.05582   0.05594   0.05641   0.05685   0.05825
     Eigenvalues ---    0.06013   0.06084   0.06595   0.06967   0.07095
     Eigenvalues ---    0.07289   0.07491   0.07668   0.07784   0.08091
     Eigenvalues ---    0.08117   0.08250   0.08621   0.08759   0.08858
     Eigenvalues ---    0.08923   0.09013   0.09167   0.09324   0.09535
     Eigenvalues ---    0.10337   0.10402   0.10763   0.11349   0.12326
     Eigenvalues ---    0.12519   0.12632   0.12654   0.12871   0.13663
     Eigenvalues ---    0.13910   0.14615   0.15035   0.15429   0.15768
     Eigenvalues ---    0.15791   0.16000   0.16000   0.16000   0.16000
     Eigenvalues ---    0.16000   0.16000   0.16000   0.16000   0.16000
     Eigenvalues ---    0.16000   0.16008   0.16014   0.16035   0.16157
     Eigenvalues ---    0.16234   0.16585   0.16899   0.16990   0.17231
     Eigenvalues ---    0.17888   0.18516   0.19202   0.19843   0.21341
     Eigenvalues ---    0.21813   0.21900   0.22094   0.22186   0.22497
     Eigenvalues ---    0.23314   0.24740   0.25481   0.25937   0.26269
     Eigenvalues ---    0.26849   0.26963   0.27032   0.27534   0.27752
     Eigenvalues ---    0.27862   0.27964   0.28247   0.28434   0.28584
     Eigenvalues ---    0.28640   0.28756   0.28837   0.28965   0.29026
     Eigenvalues ---    0.29259   0.29382   0.29422   0.29518   0.30016
     Eigenvalues ---    0.30323   0.31101   0.31660   0.33267   0.33453
     Eigenvalues ---    0.33572   0.33723   0.33818   0.33876   0.33893
     Eigenvalues ---    0.33920   0.33931   0.33965   0.33997   0.34004
     Eigenvalues ---    0.34019   0.34022   0.34032   0.34051   0.34086
     Eigenvalues ---    0.34118   0.34124   0.34132   0.34136   0.34142
     Eigenvalues ---    0.34156   0.34165   0.34180   0.34193   0.34210
     Eigenvalues ---    0.34217   0.34220   0.34230   0.34234   0.34250
     Eigenvalues ---    0.34253   0.34260   0.34280   0.34309   0.34325
     Eigenvalues ---    0.34346   0.34403   0.34451   0.34489   0.34578
     Eigenvalues ---    0.34682   0.35002   0.35327   0.38616   0.52859
     Eigenvalues ---    0.53550
 En-DIIS/RFO-DIIS/Sim-DIIS IScMMF=       -3 using points:     7    6    5    4    3    2
 RFO step:  Lambda=-9.13427601D-07.
 NNeg= 0 NGDIIS= 6 SimSw=  2.50D-01 Rises=F DC= -1.85D-06 SmlDif=  1.00D-05
 NRisDI= 0 DoIntr=F SqrtH=F CThrHd= 10.0 CDAdj=  3.0
 RMS Error=  0.4659298066D-03 NUsed= 6 OKEnD=F EnDIS=F
 InvSVX:  RCond= 1.45D-05 Info=           0 Equed=N FErr=  8.12D-15 BErr=  1.02D-16
 DidBck=T Rises=F RFO-DIIS coefs:    0.75134    0.31209   -0.00443   -0.03106   -0.05330
                  RFO-DIIS coefs:    0.02537
 Iteration  1 RMS(Cart)=  0.00117421 RMS(Int)=  0.00000065
 Iteration  2 RMS(Cart)=  0.00000086 RMS(Int)=  0.00000059
 ITry= 1 IFail=0 DXMaxC= 5.78D-03 DCOld= 1.00D+10 DXMaxT= 8.11D-01 DXLimC= 3.00D+00 Rises=F
 Variable       Old X    -DE/DX   Delta X   Delta X   Delta X     New X
                                 (Linear)    (Quad)   (Total)
    R1        2.92818   0.00001  -0.00006   0.00002  -0.00004   2.92814
    R2        2.07172   0.00001  -0.00004   0.00007   0.00002   2.07174
    R3        2.06713  -0.00000  -0.00002   0.00002   0.00000   2.06713
    R4        2.06994   0.00002  -0.00001   0.00006   0.00005   2.06999
    R5        2.95199  -0.00004  -0.00004  -0.00008  -0.00012   2.95187
    R6        2.92475   0.00003   0.00007   0.00003   0.00010   2.92485
    R7        2.97719  -0.00003   0.00003  -0.00015  -0.00011   2.97708
    R8        2.90662   0.00001   0.00002   0.00002   0.00004   2.90665
    R9        2.91207  -0.00000  -0.00012   0.00022   0.00010   2.91218
   R10        2.09052   0.00001  -0.00001   0.00001  -0.00001   2.09051
   R11        2.94253   0.00002   0.00007   0.00000   0.00008   2.94260
   R12        2.91597   0.00000  -0.00003   0.00001  -0.00002   2.91595
   R13        2.07992   0.00001  -0.00008   0.00011   0.00003   2.07995
   R14        2.97592  -0.00005   0.00003  -0.00020  -0.00017   2.97575
   R15        2.93096  -0.00002  -0.00013   0.00016   0.00003   2.93099
   R16        2.08808   0.00001  -0.00005   0.00008   0.00003   2.08811
   R17        2.94291  -0.00001  -0.00005  -0.00000  -0.00006   2.94285
   R18        2.91076   0.00002  -0.00000  -0.00004  -0.00004   2.91072
   R19        2.96093  -0.00002  -0.00011   0.00007  -0.00004   2.96089
   R20        2.06744   0.00001  -0.00001   0.00002   0.00001   2.06746
   R21        2.07002   0.00001  -0.00004   0.00008   0.00004   2.07006
   R22        2.07029   0.00002   0.00000   0.00005   0.00005   2.07034
   R23        2.54276  -0.00003   0.00010  -0.00015  -0.00005   2.54271
   R24        2.87510  -0.00001   0.00018  -0.00020  -0.00003   2.87507
   R25        2.84487   0.00004  -0.00004   0.00014   0.00010   2.84497
   R26        2.06188   0.00000  -0.00003   0.00003   0.00000   2.06189
   R27        2.07797  -0.00000  -0.00002   0.00002   0.00000   2.07797
   R28        2.08702   0.00001  -0.00003   0.00004   0.00001   2.08703
   R29        2.90438  -0.00005   0.00001  -0.00011  -0.00010   2.90428
   R30        2.07620   0.00003  -0.00006   0.00015   0.00009   2.07629
   R31        2.07893   0.00001  -0.00008   0.00011   0.00002   2.07895
   R32        2.77761   0.00004   0.00022  -0.00002   0.00020   2.77781
   R33        2.87957  -0.00001   0.00008  -0.00016  -0.00009   2.87949
   R34        2.08129   0.00002  -0.00013   0.00018   0.00005   2.08133
   R35        1.84920   0.00001   0.00005  -0.00002   0.00003   1.84923
   R36        2.91144   0.00001   0.00018  -0.00022  -0.00004   2.91140
   R37        2.07222   0.00002  -0.00005   0.00013   0.00008   2.07230
   R38        2.07426   0.00000  -0.00008   0.00012   0.00004   2.07431
   R39        2.07231   0.00001   0.00002   0.00001   0.00003   2.07234
   R40        2.07966   0.00000  -0.00002   0.00002   0.00001   2.07966
   R41        2.92600   0.00002   0.00006  -0.00001   0.00006   2.92606
   R42        2.07404   0.00001  -0.00003   0.00007   0.00005   2.07408
   R43        2.07209  -0.00001   0.00001  -0.00003  -0.00002   2.07207
   R44        2.08102   0.00000  -0.00004   0.00005   0.00001   2.08103
   R45        2.07058   0.00002  -0.00002   0.00007   0.00006   2.07064
   R46        2.94522  -0.00000  -0.00002   0.00010   0.00008   2.94529
   R47        2.07586   0.00001  -0.00003   0.00006   0.00003   2.07589
   R48        2.07074   0.00001  -0.00003   0.00008   0.00005   2.07079
   R49        2.97343   0.00001  -0.00014   0.00019   0.00005   2.97348
   R50        2.07486   0.00000  -0.00000   0.00000   0.00000   2.07486
   R51        2.07022   0.00001  -0.00000   0.00003   0.00003   2.07025
   R52        2.94129  -0.00001  -0.00000  -0.00002  -0.00002   2.94127
   R53        2.08633   0.00002  -0.00005   0.00006   0.00001   2.08634
   R54        2.94077   0.00006  -0.00001   0.00013   0.00012   2.94089
   R55        2.91580   0.00001   0.00002  -0.00003  -0.00001   2.91580
   R56        2.08067   0.00001  -0.00005   0.00007   0.00001   2.08068
   R57        2.92272  -0.00000   0.00010  -0.00014  -0.00003   2.92269
   R58        2.07230  -0.00000  -0.00003   0.00007   0.00003   2.07233
   R59        2.08261   0.00002  -0.00006   0.00011   0.00005   2.08266
   R60        2.91985  -0.00000   0.00016  -0.00019  -0.00003   2.91982
   R61        2.07721   0.00001  -0.00006   0.00012   0.00006   2.07726
   R62        2.07581  -0.00000  -0.00004   0.00006   0.00002   2.07583
   R63        2.92734   0.00001   0.00006  -0.00010  -0.00004   2.92731
   R64        2.08221   0.00002  -0.00006   0.00010   0.00004   2.08225
   R65        2.07887   0.00001  -0.00006   0.00010   0.00004   2.07892
   R66        2.91438  -0.00002   0.00003  -0.00007  -0.00004   2.91434
   R67        2.91589  -0.00001   0.00003  -0.00001   0.00003   2.91591
   R68        2.08124   0.00001  -0.00007   0.00008   0.00001   2.08125
   R69        2.07360   0.00001  -0.00004   0.00008   0.00004   2.07364
   R70        2.07099   0.00001  -0.00002   0.00005   0.00003   2.07102
   R71        2.07690   0.00000  -0.00004   0.00003  -0.00000   2.07690
   R72        2.07647   0.00000  -0.00004   0.00004   0.00000   2.07647
   R73        2.07382   0.00001  -0.00002   0.00005   0.00003   2.07385
   R74        2.07345   0.00001  -0.00003   0.00007   0.00004   2.07350
   R75        2.06561   0.00002  -0.00005   0.00011   0.00006   2.06568
   R76        2.07620   0.00000  -0.00001  -0.00001  -0.00002   2.07619
   R77        2.06989  -0.00001  -0.00004   0.00006   0.00002   2.06991
    A1        1.92920   0.00000   0.00009  -0.00012  -0.00002   1.92918
    A2        1.95746   0.00003  -0.00003   0.00021   0.00018   1.95764
    A3        1.94977  -0.00001  -0.00008   0.00010   0.00002   1.94979
    A4        1.87370  -0.00001   0.00001  -0.00003  -0.00002   1.87368
    A5        1.87576  -0.00000   0.00002  -0.00005  -0.00003   1.87573
    A6        1.87409  -0.00002  -0.00001  -0.00013  -0.00014   1.87395
    A7        1.96247  -0.00002  -0.00008  -0.00004  -0.00012   1.96235
    A8        1.93478   0.00003   0.00004   0.00020   0.00024   1.93502
    A9        1.92344   0.00000   0.00004  -0.00007  -0.00003   1.92341
   A10        1.85541  -0.00000   0.00007   0.00020   0.00027   1.85567
   A11        1.74581   0.00001  -0.00004  -0.00022  -0.00026   1.74555
   A12        2.03377  -0.00002  -0.00004  -0.00011  -0.00015   2.03362
   A13        2.01095   0.00000  -0.00012   0.00010  -0.00002   2.01093
   A14        1.82096  -0.00001  -0.00021  -0.00001  -0.00022   1.82074
   A15        1.83504   0.00001   0.00031  -0.00022   0.00009   1.83513
   A16        2.07291   0.00000   0.00008  -0.00012  -0.00004   2.07287
   A17        1.84649  -0.00001   0.00010  -0.00007   0.00004   1.84653
   A18        1.85940   0.00001  -0.00012   0.00032   0.00020   1.85960
   A19        1.91388  -0.00001   0.00008  -0.00013  -0.00005   1.91383
   A20        1.93453  -0.00000   0.00020  -0.00028  -0.00008   1.93445
   A21        1.90790   0.00001  -0.00018   0.00029   0.00011   1.90801
   A22        1.91604   0.00000   0.00006  -0.00005   0.00001   1.91605
   A23        1.90582   0.00001  -0.00002   0.00002  -0.00000   1.90582
   A24        1.88525  -0.00000  -0.00015   0.00016   0.00001   1.88526
   A25        1.96485  -0.00000   0.00024  -0.00033  -0.00010   1.96475
   A26        1.95414   0.00002  -0.00003   0.00005   0.00002   1.95415
   A27        1.84302  -0.00000   0.00003   0.00008   0.00010   1.84313
   A28        1.97756  -0.00002  -0.00012  -0.00007  -0.00019   1.97737
   A29        1.84584   0.00001   0.00004   0.00014   0.00017   1.84602
   A30        1.86676   0.00000  -0.00016   0.00019   0.00003   1.86679
   A31        1.94839  -0.00002  -0.00002  -0.00031  -0.00033   1.94806
   A32        1.92071   0.00000   0.00015   0.00003   0.00018   1.92089
   A33        1.89352  -0.00000  -0.00008  -0.00004  -0.00012   1.89340
   A34        1.90010   0.00002   0.00007   0.00012   0.00020   1.90030
   A35        1.91120   0.00000  -0.00013   0.00018   0.00004   1.91124
   A36        1.88900  -0.00000   0.00001   0.00003   0.00004   1.88904
   A37        1.94312   0.00002   0.00003   0.00016   0.00020   1.94331
   A38        1.93707  -0.00001   0.00007  -0.00012  -0.00005   1.93702
   A39        1.94151   0.00001  -0.00007   0.00016   0.00009   1.94159
   A40        1.87436  -0.00001  -0.00002  -0.00005  -0.00006   1.87430
   A41        1.87256  -0.00001  -0.00001  -0.00007  -0.00008   1.87248
   A42        1.89239  -0.00001  -0.00001  -0.00010  -0.00011   1.89228
   A43        2.14741   0.00001  -0.00007   0.00012   0.00005   2.14746
   A44        2.03242  -0.00000  -0.00000  -0.00002  -0.00002   2.03240
   A45        2.10336  -0.00001   0.00007  -0.00010  -0.00003   2.10333
   A46        2.18393  -0.00002   0.00008  -0.00021  -0.00012   2.18381
   A47        2.07139   0.00001  -0.00000   0.00007   0.00006   2.07145
   A48        2.02785   0.00001  -0.00008   0.00014   0.00006   2.02791
   A49        1.97337  -0.00001   0.00006  -0.00013  -0.00007   1.97330
   A50        1.91762   0.00001  -0.00014   0.00018   0.00003   1.91766
   A51        1.90536   0.00000   0.00006  -0.00006  -0.00000   1.90536
   A52        1.91161  -0.00000  -0.00008   0.00014   0.00006   1.91167
   A53        1.91033   0.00000   0.00003  -0.00008  -0.00005   1.91029
   A54        1.84083  -0.00000   0.00007  -0.00005   0.00003   1.84086
   A55        1.95591  -0.00000   0.00021  -0.00012   0.00009   1.95600
   A56        1.91059   0.00000   0.00007  -0.00011  -0.00004   1.91055
   A57        1.93536   0.00000   0.00001  -0.00001   0.00001   1.93538
   A58        1.92582   0.00000  -0.00015   0.00012  -0.00003   1.92579
   A59        1.86859  -0.00001  -0.00006   0.00012   0.00006   1.86865
   A60        1.86517   0.00000  -0.00012   0.00002  -0.00010   1.86506
   A61        1.94431  -0.00001   0.00025  -0.00040  -0.00014   1.94416
   A62        1.93085   0.00002  -0.00014   0.00038   0.00025   1.93110
   A63        1.91247  -0.00001  -0.00026   0.00026   0.00001   1.91248
   A64        1.86190  -0.00000   0.00070  -0.00082  -0.00012   1.86178
   A65        1.89891   0.00000  -0.00016   0.00015  -0.00001   1.89890
   A66        1.91454  -0.00000  -0.00040   0.00041   0.00001   1.91455
   A67        1.93896   0.00001   0.00038  -0.00043  -0.00005   1.93891
   A68        1.93309  -0.00001   0.00040  -0.00050  -0.00009   1.93299
   A69        1.91033   0.00000  -0.00011   0.00011  -0.00000   1.91033
   A70        1.89273   0.00001  -0.00032   0.00053   0.00021   1.89294
   A71        1.92223   0.00000   0.00004  -0.00004  -0.00000   1.92223
   A72        1.94078  -0.00000   0.00002   0.00001   0.00003   1.94081
   A73        1.86304  -0.00000  -0.00006  -0.00008  -0.00014   1.86290
   A74        2.00161  -0.00001  -0.00006   0.00002  -0.00004   2.00157
   A75        1.90680  -0.00000  -0.00008   0.00011   0.00003   1.90683
   A76        1.88632  -0.00001  -0.00003  -0.00005  -0.00008   1.88624
   A77        1.90307   0.00001   0.00023  -0.00020   0.00003   1.90310
   A78        1.89833   0.00001   0.00002   0.00005   0.00007   1.89840
   A79        1.86272  -0.00000  -0.00009   0.00007  -0.00002   1.86271
   A80        1.99219  -0.00003   0.00006  -0.00012  -0.00006   1.99213
   A81        1.91197   0.00000  -0.00004  -0.00007  -0.00011   1.91186
   A82        1.91592   0.00000  -0.00013   0.00022   0.00010   1.91602
   A83        1.89170   0.00002   0.00004   0.00003   0.00006   1.89177
   A84        1.89411   0.00001   0.00013  -0.00005   0.00008   1.89420
   A85        1.85263  -0.00001  -0.00007  -0.00001  -0.00008   1.85255
   A86        1.95007   0.00002   0.00022   0.00002   0.00024   1.95031
   A87        1.89522  -0.00001  -0.00006   0.00002  -0.00005   1.89518
   A88        1.94912  -0.00001   0.00003  -0.00012  -0.00008   1.94904
   A89        1.91208  -0.00001  -0.00006  -0.00005  -0.00012   1.91196
   A90        1.89286   0.00000  -0.00003   0.00013   0.00009   1.89296
   A91        1.86227   0.00000  -0.00011   0.00000  -0.00011   1.86217
   A92        1.81133  -0.00001   0.00009  -0.00018  -0.00009   1.81124
   A93        1.93145   0.00000  -0.00004   0.00008   0.00004   1.93150
   A94        1.96076   0.00000  -0.00007   0.00009   0.00003   1.96079
   A95        1.94018   0.00001  -0.00000   0.00004   0.00004   1.94022
   A96        1.95584  -0.00000  -0.00001   0.00004   0.00002   1.95586
   A97        1.86588   0.00000   0.00003  -0.00007  -0.00004   1.86584
   A98        1.87182  -0.00001  -0.00007  -0.00011  -0.00017   1.87164
   A99        1.93446  -0.00000   0.00002   0.00006   0.00008   1.93454
   A100       1.94035   0.00000   0.00002   0.00001   0.00003   1.94039
   A101       1.92223   0.00000   0.00008   0.00007   0.00015   1.92239
   A102       1.93542   0.00000  -0.00011   0.00008  -0.00003   1.93539
   A103       1.86043  -0.00000   0.00006  -0.00011  -0.00005   1.86038
   A104       1.80279  -0.00001  -0.00015   0.00001  -0.00014   1.80265
   A105       2.08602  -0.00001   0.00009  -0.00009   0.00000   2.08603
   A106       1.85291   0.00001   0.00014  -0.00008   0.00007   1.85298
   A107       1.96046   0.00001   0.00006   0.00002   0.00009   1.96055
   A108       1.88756   0.00001  -0.00010   0.00014   0.00004   1.88760
   A109       1.86452  -0.00001  -0.00006   0.00001  -0.00005   1.86447
   A110       1.91346  -0.00002   0.00004  -0.00020  -0.00016   1.91329
   A111       1.97470  -0.00004  -0.00002  -0.00014  -0.00016   1.97454
   A112       1.87572   0.00002  -0.00006   0.00005  -0.00001   1.87571
   A113       1.92669   0.00006  -0.00001   0.00028   0.00027   1.92696
   A114       1.88288  -0.00001  -0.00003   0.00009   0.00005   1.88293
   A115       1.88734  -0.00000   0.00009  -0.00008   0.00001   1.88735
   A116       2.03377   0.00005   0.00015  -0.00003   0.00012   2.03390
   A117       1.90389  -0.00002  -0.00003  -0.00009  -0.00012   1.90377
   A118       1.88531  -0.00000  -0.00008   0.00018   0.00010   1.88541
   A119       1.89310  -0.00002  -0.00000  -0.00014  -0.00014   1.89296
   A120       1.88898  -0.00001   0.00008  -0.00003   0.00005   1.88903
   A121       1.85032   0.00001  -0.00014   0.00012  -0.00003   1.85030
   A122       2.01967  -0.00001   0.00020  -0.00022  -0.00001   2.01965
   A123       1.88323   0.00001  -0.00010   0.00018   0.00009   1.88332
   A124       1.91640  -0.00001   0.00002  -0.00008  -0.00006   1.91635
   A125       1.90764  -0.00001   0.00004  -0.00012  -0.00008   1.90756
   A126       1.88953   0.00001  -0.00000   0.00008   0.00008   1.88961
   A127       1.83897  -0.00000  -0.00021   0.00019  -0.00002   1.83895
   A128       2.02974  -0.00001   0.00024  -0.00031  -0.00007   2.02967
   A129       1.89150   0.00000   0.00003  -0.00004  -0.00001   1.89149
   A130       1.90706   0.00000  -0.00004   0.00004  -0.00000   1.90706
   A131       1.88660   0.00001  -0.00007   0.00008   0.00001   1.88661
   A132       1.89158   0.00000  -0.00005   0.00009   0.00005   1.89163
   A133       1.84904  -0.00000  -0.00016   0.00019   0.00003   1.84907
   A134       1.96057  -0.00000   0.00007  -0.00010  -0.00003   1.96055
   A135       1.92244   0.00001   0.00004  -0.00003   0.00001   1.92245
   A136       1.88924   0.00000   0.00000   0.00006   0.00006   1.88930
   A137       1.92806  -0.00001   0.00003  -0.00005  -0.00002   1.92804
   A138       1.88381   0.00000  -0.00004   0.00006   0.00002   1.88382
   A139       1.87697  -0.00000  -0.00011   0.00007  -0.00003   1.87694
   A140       1.93369   0.00001  -0.00003   0.00007   0.00004   1.93374
   A141       1.95597  -0.00001   0.00010  -0.00012  -0.00002   1.95595
   A142       1.92967   0.00000  -0.00000   0.00004   0.00004   1.92971
   A143       1.87841   0.00000  -0.00008   0.00004  -0.00004   1.87837
   A144       1.88063  -0.00000  -0.00001   0.00001   0.00000   1.88063
   A145       1.88271   0.00000   0.00002  -0.00004  -0.00002   1.88268
   A146       1.93156  -0.00000  -0.00000   0.00003   0.00003   1.93158
   A147       1.94228  -0.00001   0.00007  -0.00011  -0.00003   1.94225
   A148       1.94063   0.00000   0.00004  -0.00002   0.00003   1.94066
   A149       1.88132   0.00001  -0.00003   0.00005   0.00002   1.88134
   A150       1.88120   0.00000  -0.00003   0.00004   0.00001   1.88121
   A151       1.88442   0.00000  -0.00006   0.00000  -0.00005   1.88437
   A152       1.95453   0.00001  -0.00007   0.00011   0.00004   1.95457
   A153       1.93383   0.00000   0.00005   0.00001   0.00006   1.93388
   A154       1.94076   0.00001   0.00011  -0.00006   0.00005   1.94081
   A155       1.88301  -0.00001   0.00003  -0.00007  -0.00005   1.88296
   A156       1.86834  -0.00001  -0.00013   0.00001  -0.00011   1.86823
   A157       1.88009  -0.00000   0.00001  -0.00001   0.00000   1.88009
    D1       -3.09386  -0.00001   0.00038  -0.00047  -0.00009  -3.09395
    D2       -1.01964   0.00000   0.00044  -0.00011   0.00033  -1.01931
    D3        1.25804  -0.00001   0.00045  -0.00015   0.00030   1.25834
    D4       -1.00358   0.00000   0.00043  -0.00044  -0.00001  -1.00359
    D5        1.07065   0.00001   0.00049  -0.00008   0.00041   1.07106
    D6       -2.93487   0.00000   0.00050  -0.00012   0.00039  -2.93448
    D7        1.10152  -0.00000   0.00034  -0.00039  -0.00005   1.10147
    D8       -3.10745   0.00000   0.00040  -0.00003   0.00037  -3.10707
    D9       -0.82977  -0.00000   0.00041  -0.00007   0.00035  -0.82943
   D10        1.07324   0.00002   0.00017   0.00064   0.00081   1.07405
   D11       -1.23098   0.00002   0.00034   0.00073   0.00107  -1.22991
   D12        3.09868   0.00002   0.00043   0.00047   0.00090   3.09958
   D13       -1.04692  -0.00000   0.00013   0.00028   0.00041  -1.04651
   D14        2.93205   0.00000   0.00030   0.00037   0.00067   2.93272
   D15        0.97852  -0.00001   0.00040   0.00011   0.00050   0.97903
   D16        3.11360   0.00002   0.00016   0.00043   0.00059   3.11419
   D17        0.80938   0.00002   0.00033   0.00052   0.00085   0.81023
   D18       -1.14414   0.00001   0.00043   0.00025   0.00068  -1.14346
   D19       -1.15482   0.00000  -0.00031  -0.00047  -0.00078  -1.15560
   D20        3.01752   0.00001  -0.00033  -0.00043  -0.00076   3.01676
   D21        0.96881   0.00002  -0.00017  -0.00038  -0.00055   0.96826
   D22        0.98294   0.00000  -0.00035  -0.00027  -0.00062   0.98232
   D23       -1.12791   0.00000  -0.00037  -0.00023  -0.00059  -1.12850
   D24        3.10657   0.00001  -0.00021  -0.00018  -0.00039   3.10618
   D25        2.91002  -0.00001  -0.00037  -0.00047  -0.00084   2.90919
   D26        0.79918  -0.00000  -0.00039  -0.00043  -0.00081   0.79836
   D27       -1.24954   0.00001  -0.00023  -0.00038  -0.00061  -1.25014
   D28        1.38283  -0.00003  -0.00058  -0.00067  -0.00125   1.38158
   D29       -0.80957  -0.00003  -0.00060  -0.00065  -0.00125  -0.81082
   D30       -2.91617  -0.00002  -0.00069  -0.00054  -0.00124  -2.91740
   D31       -0.68651  -0.00002  -0.00048  -0.00049  -0.00097  -0.68748
   D32       -2.87891  -0.00002  -0.00050  -0.00046  -0.00096  -2.87988
   D33        1.29768  -0.00001  -0.00059  -0.00036  -0.00096   1.29672
   D34       -2.67642  -0.00001  -0.00052  -0.00054  -0.00106  -2.67749
   D35        1.41436  -0.00001  -0.00054  -0.00052  -0.00106   1.41330
   D36       -0.69223   0.00000  -0.00064  -0.00041  -0.00105  -0.69328
   D37        0.99203   0.00001   0.00020  -0.00009   0.00012   0.99215
   D38        3.11027   0.00001   0.00047  -0.00042   0.00005   3.11032
   D39       -1.09678   0.00001   0.00029  -0.00021   0.00008  -1.09670
   D40       -3.11292   0.00000  -0.00016  -0.00011  -0.00027  -3.11319
   D41       -0.99468  -0.00000   0.00011  -0.00044  -0.00034  -0.99502
   D42        1.08146  -0.00000  -0.00007  -0.00024  -0.00031   1.08115
   D43       -1.02687   0.00001  -0.00018   0.00017  -0.00001  -1.02688
   D44        1.09137   0.00000   0.00008  -0.00016  -0.00008   1.09129
   D45       -3.11568   0.00000  -0.00010   0.00005  -0.00005  -3.11572
   D46       -0.60465  -0.00001  -0.00009  -0.00032  -0.00041  -0.60506
   D47        1.47802  -0.00001  -0.00006  -0.00033  -0.00039   1.47763
   D48       -2.72106  -0.00001  -0.00009  -0.00030  -0.00039  -2.72145
   D49       -2.87253  -0.00001   0.00021  -0.00036  -0.00014  -2.87267
   D50       -0.78986  -0.00000   0.00024  -0.00037  -0.00012  -0.78998
   D51        1.29425  -0.00000   0.00021  -0.00034  -0.00013   1.29412
   D52        1.33127  -0.00001   0.00012  -0.00044  -0.00032   1.33094
   D53       -2.86925  -0.00000   0.00015  -0.00045  -0.00030  -2.86955
   D54       -0.78514   0.00000   0.00012  -0.00043  -0.00031  -0.78545
   D55       -3.10592   0.00000  -0.00018   0.00008  -0.00010  -3.10602
   D56       -0.85396  -0.00002  -0.00017  -0.00026  -0.00043  -0.85438
   D57        1.17143  -0.00001  -0.00036   0.00003  -0.00032   1.17111
   D58        1.04795   0.00001  -0.00052   0.00054   0.00002   1.04796
   D59       -2.98328  -0.00001  -0.00051   0.00020  -0.00031  -2.98359
   D60       -0.95790   0.00000  -0.00070   0.00050  -0.00020  -0.95810
   D61       -1.01583   0.00001  -0.00036   0.00036   0.00000  -1.01583
   D62        1.23613  -0.00001  -0.00035   0.00002  -0.00032   1.23580
   D63       -3.02168  -0.00000  -0.00053   0.00032  -0.00022  -3.02189
   D64       -2.85637   0.00000  -0.00015  -0.00024  -0.00038  -2.85676
   D65        1.28533   0.00001   0.00002  -0.00046  -0.00044   1.28489
   D66       -0.72548   0.00000  -0.00002  -0.00047  -0.00049  -0.72597
   D67       -0.73941  -0.00001   0.00013  -0.00062  -0.00049  -0.73989
   D68       -2.88089  -0.00001   0.00030  -0.00084  -0.00054  -2.88143
   D69        1.39149  -0.00001   0.00025  -0.00085  -0.00059   1.39089
   D70        1.33707  -0.00000   0.00004  -0.00052  -0.00048   1.33659
   D71       -0.80441   0.00000   0.00021  -0.00075  -0.00053  -0.80495
   D72       -2.81522  -0.00000   0.00017  -0.00075  -0.00058  -2.81581
   D73        1.33085   0.00001   0.00082  -0.00033   0.00048   1.33133
   D74       -0.78104   0.00000   0.00064  -0.00031   0.00033  -0.78071
   D75       -2.84477   0.00000   0.00059  -0.00034   0.00025  -2.84452
   D76       -0.90891   0.00001   0.00076  -0.00005   0.00071  -0.90820
   D77       -3.02080  -0.00000   0.00058  -0.00002   0.00055  -3.02025
   D78        1.19866  -0.00000   0.00053  -0.00005   0.00048   1.19913
   D79       -2.94820   0.00001   0.00099  -0.00033   0.00066  -2.94754
   D80        1.22310   0.00000   0.00081  -0.00030   0.00051   1.22360
   D81       -0.84064   0.00000   0.00076  -0.00033   0.00043  -0.84020
   D82        0.87099  -0.00000  -0.00025   0.00032   0.00006   0.87106
   D83        2.99563   0.00001  -0.00019   0.00022   0.00003   2.99566
   D84       -1.25975   0.00000  -0.00037   0.00030  -0.00008  -1.25982
   D85        3.11627  -0.00001  -0.00006  -0.00016  -0.00022   3.11605
   D86       -1.04228  -0.00000   0.00000  -0.00026  -0.00025  -1.04253
   D87        0.98553  -0.00001  -0.00018  -0.00018  -0.00036   0.98517
   D88       -1.13995  -0.00001  -0.00018   0.00009  -0.00009  -1.14003
   D89        0.98469   0.00000  -0.00012  -0.00001  -0.00012   0.98457
   D90        3.01250  -0.00001  -0.00030   0.00007  -0.00023   3.01227
   D91       -2.99248  -0.00001  -0.00024  -0.00044  -0.00067  -2.99315
   D92       -0.90555  -0.00001  -0.00019  -0.00047  -0.00065  -0.90621
   D93        1.20310  -0.00001  -0.00020  -0.00057  -0.00077   1.20233
   D94       -0.86863  -0.00000  -0.00001  -0.00051  -0.00053  -0.86916
   D95        1.21830  -0.00000   0.00004  -0.00055  -0.00051   1.21779
   D96       -2.95624  -0.00001   0.00003  -0.00065  -0.00062  -2.95686
   D97        1.19350   0.00001  -0.00004  -0.00031  -0.00034   1.19315
   D98       -3.00276   0.00001   0.00001  -0.00034  -0.00032  -3.00309
   D99       -0.89411   0.00000   0.00000  -0.00044  -0.00044  -0.89455
   D100       0.24592  -0.00000  -0.00047   0.00025  -0.00023   0.24569
   D101      -2.89807   0.00000  -0.00013   0.00016   0.00003  -2.89804
   D102      -1.89468   0.00001  -0.00059   0.00053  -0.00006  -1.89474
   D103       1.24451   0.00001  -0.00025   0.00044   0.00019   1.24471
   D104       2.31243  -0.00001  -0.00047   0.00023  -0.00025   2.31219
   D105      -0.83156   0.00000  -0.00013   0.00014   0.00001  -0.83155
   D106       2.94646   0.00001   0.00008   0.00036   0.00044   2.94690
   D107      -1.19456   0.00001   0.00028   0.00021   0.00048  -1.19408
   D108       0.82591   0.00001   0.00011   0.00032   0.00044   0.82635
   D109      -1.20630  -0.00002  -0.00008   0.00007  -0.00001  -1.20631
   D110       0.93586  -0.00001   0.00012  -0.00009   0.00003   0.93589
   D111       2.95633  -0.00002  -0.00004   0.00003  -0.00002   2.95632
   D112       0.86272   0.00000  -0.00006   0.00034   0.00028   0.86300
   D113       3.00488   0.00001   0.00014   0.00018   0.00031   3.00520
   D114      -1.25782   0.00000  -0.00003   0.00029   0.00027  -1.25756
   D115       0.03310   0.00000   0.00008  -0.00026  -0.00018   0.03292
   D116      -3.11551   0.00001   0.00005   0.00011   0.00016  -3.11535
   D117      -3.10600  -0.00000  -0.00027  -0.00017  -0.00044  -3.10645
   D118       0.02857   0.00000  -0.00030   0.00020  -0.00010   0.02847
   D119       0.90775  -0.00001   0.00000  -0.00040  -0.00040   0.90735
   D120       3.05032  -0.00001   0.00001  -0.00041  -0.00040   3.04992
   D121      -1.17924  -0.00001  -0.00008  -0.00046  -0.00055  -1.17978
   D122      -2.23618  -0.00001   0.00033  -0.00049  -0.00015  -2.23633
   D123      -0.09360  -0.00000   0.00034  -0.00050  -0.00015  -0.09376
   D124       1.96002   0.00000   0.00025  -0.00055  -0.00030   1.95973
   D125       0.22475   0.00001   0.00013   0.00043   0.00056   0.22530
   D126       2.36957   0.00001  -0.00008   0.00067   0.00060   2.37017
   D127      -1.90336   0.00001  -0.00001   0.00065   0.00064  -1.90272
   D128      -2.90999   0.00000   0.00016   0.00006   0.00022  -2.90976
   D129      -0.76516   0.00000  -0.00004   0.00031   0.00026  -0.76490
   D130       1.24509   0.00000   0.00002   0.00029   0.00030   1.24540
   D131      -3.01898  -0.00000  -0.00048   0.00094   0.00046  -3.01851
   D132      -0.95103   0.00000   0.00048  -0.00009   0.00039  -0.95064
   D133       1.16203   0.00001  -0.00027   0.00083   0.00057   1.16260
   D134       1.13029  -0.00000  -0.00061   0.00108   0.00047   1.13076
   D135      -3.08495  -0.00000   0.00034   0.00005   0.00040  -3.08455
   D136      -0.97189   0.00000  -0.00040   0.00098   0.00057  -0.97132
   D137      -0.89329  -0.00000  -0.00036   0.00094   0.00058  -0.89271
   D138       1.17466  -0.00000   0.00060  -0.00010   0.00050   1.17516
   D139      -2.99547   0.00001  -0.00015   0.00083   0.00068  -2.99479
   D140      -1.06910   0.00000   0.00034  -0.00092  -0.00058  -1.06967
   D141       3.10525  -0.00001  -0.00009  -0.00063  -0.00072   3.10453
   D142       1.04104  -0.00001   0.00007  -0.00074  -0.00066   1.04037
   D143       0.98519   0.00000  -0.00052   0.00032  -0.00020   0.98499
   D144       3.10789   0.00000  -0.00028   0.00001  -0.00027   3.10763
   D145      -1.14900   0.00000  -0.00059   0.00028  -0.00032  -1.14932
   D146       3.10261  -0.00001   0.00015  -0.00045  -0.00030   3.10231
   D147      -1.05787  -0.00000   0.00039  -0.00076  -0.00037  -1.05824
   D148       0.96842  -0.00000   0.00008  -0.00050  -0.00042   0.96800
   D149      -1.12664  -0.00000   0.00014  -0.00052  -0.00038  -1.12702
   D150       0.99606  -0.00000   0.00038  -0.00082  -0.00044   0.99562
   D151       3.02235  -0.00000   0.00007  -0.00056  -0.00049   3.02186
   D152      -0.97707   0.00000   0.00024  -0.00031  -0.00008  -0.97714
   D153      -3.12124   0.00000   0.00021  -0.00032  -0.00011  -3.12135
   D154       1.13690  -0.00001   0.00018  -0.00033  -0.00015   1.13675
   D155      -3.09276   0.00000   0.00009  -0.00010  -0.00001  -3.09277
   D156       1.04626   0.00000   0.00006  -0.00010  -0.00005   1.04621
   D157      -0.97879  -0.00001   0.00002  -0.00011  -0.00008  -0.97887
   D158       1.12883   0.00001   0.00012   0.00002   0.00015   1.12897
   D159      -1.01534   0.00000   0.00009   0.00002   0.00011  -1.01523
   D160      -3.04039  -0.00000   0.00006   0.00001   0.00007  -3.04032
   D161      -0.95669   0.00002   0.00046   0.00007   0.00053  -0.95616
   D162       1.14433   0.00001   0.00048   0.00007   0.00055   1.14487
   D163      -3.11246   0.00001   0.00029   0.00012   0.00041  -3.11205
   D164      -3.09245   0.00001   0.00044   0.00021   0.00066  -3.09180
   D165      -0.99144   0.00001   0.00047   0.00021   0.00068  -0.99076
   D166       1.03496   0.00001   0.00028   0.00026   0.00054   1.03550
   D167       1.18597   0.00001   0.00044   0.00024   0.00068   1.18665
   D168      -2.99620   0.00000   0.00046   0.00024   0.00070  -2.99550
   D169      -0.96980   0.00000   0.00027   0.00029   0.00056  -0.96924
   D170       0.15920   0.00000  -0.00017  -0.00002  -0.00020   0.15900
   D171       2.25803   0.00000  -0.00010   0.00003  -0.00008   2.25796
   D172      -1.95924   0.00000  -0.00000  -0.00006  -0.00007  -1.95931
   D173      -1.91749   0.00000  -0.00018  -0.00004  -0.00022  -1.91771
   D174       0.18134   0.00000  -0.00011   0.00001  -0.00010   0.18124
   D175       2.24725   0.00000  -0.00001  -0.00008  -0.00009   2.24716
   D176       2.27891  -0.00000  -0.00020  -0.00000  -0.00021   2.27870
   D177      -1.90545  -0.00000  -0.00014   0.00005  -0.00009  -1.90553
   D178       0.16046  -0.00000  -0.00004  -0.00004  -0.00008   0.16039
   D179       0.33610   0.00001   0.00039   0.00033   0.00071   0.33681
   D180       2.60706  -0.00000   0.00044   0.00023   0.00067   2.60773
   D181      -1.62284  -0.00000   0.00033   0.00035   0.00069  -1.62216
   D182      -1.77050   0.00001   0.00036   0.00028   0.00064  -1.76985
   D183       0.50047  -0.00000   0.00041   0.00019   0.00060   0.50107
   D184       2.55375  -0.00000   0.00031   0.00031   0.00061   2.55436
   D185       2.45764   0.00001   0.00030   0.00032   0.00063   2.45826
   D186      -1.55458  -0.00000   0.00035   0.00023   0.00058  -1.55400
   D187       0.49870  -0.00001   0.00025   0.00035   0.00060   0.49929
   D188       3.13694  -0.00002  -0.00019   0.00010  -0.00009   3.13684
   D189      -0.98736   0.00001  -0.00020   0.00022   0.00003  -0.98733
   D190       1.09485  -0.00001  -0.00014   0.00008  -0.00006   1.09479
   D191       1.02143  -0.00001  -0.00012   0.00015   0.00003   1.02146
   D192      -3.10287   0.00002  -0.00012   0.00027   0.00015  -3.10272
   D193      -1.02065   0.00000  -0.00007   0.00012   0.00006  -1.02060
   D194      -1.04548  -0.00002   0.00000  -0.00005  -0.00004  -1.04552
   D195       1.11340   0.00001   0.00000   0.00007   0.00008   1.11348
   D196      -3.08757  -0.00001   0.00006  -0.00007  -0.00001  -3.08758
   D197      -3.06682   0.00000   0.00026   0.00053   0.00080  -3.06602
   D198      -0.91687  -0.00001   0.00034   0.00026   0.00060  -0.91627
   D199       1.08689  -0.00001   0.00011   0.00045   0.00056   1.08745
   D200       1.02958   0.00003   0.00027   0.00065   0.00092   1.03050
   D201      -3.10366   0.00002   0.00035   0.00038   0.00073  -3.10293
   D202      -1.09990   0.00002   0.00012   0.00057   0.00069  -1.09922
   D203      -1.02923   0.00000   0.00019   0.00054   0.00073  -1.02851
   D204       1.12071  -0.00000   0.00027   0.00026   0.00053   1.12124
   D205       3.12447  -0.00001   0.00004   0.00045   0.00049   3.12496
   D206       1.11536  -0.00001  -0.00030  -0.00106  -0.00136   1.11400
   D207      -0.98798  -0.00000  -0.00032  -0.00105  -0.00137  -0.98934
   D208      -3.07840  -0.00001  -0.00043  -0.00101  -0.00144  -3.07984
   D209      -3.01623  -0.00002  -0.00027  -0.00121  -0.00148  -3.01771
   D210       1.16362  -0.00001  -0.00029  -0.00120  -0.00149   1.16214
   D211      -0.92679  -0.00002  -0.00041  -0.00116  -0.00156  -0.92836
   D212      -0.96015   0.00000  -0.00026  -0.00099  -0.00125  -0.96141
   D213      -3.06349   0.00001  -0.00028  -0.00098  -0.00126  -3.06475
   D214       1.12928   0.00000  -0.00040  -0.00094  -0.00134   1.12794
   D215       1.01573  -0.00001  -0.00070  -0.00042  -0.00112   1.01461
   D216      -3.12492  -0.00001  -0.00058  -0.00058  -0.00117  -3.12609
   D217      -1.12920  -0.00001  -0.00087  -0.00030  -0.00117  -1.13037
   D218      -1.13979   0.00000  -0.00076  -0.00017  -0.00094  -1.14073
   D219       1.00274  -0.00000  -0.00065  -0.00033  -0.00098   1.00176
   D220       2.99846  -0.00000  -0.00093  -0.00006  -0.00099   2.99748
   D221      -3.13990   0.00001  -0.00064  -0.00023  -0.00086  -3.14076
   D222      -0.99736   0.00000  -0.00052  -0.00038  -0.00091  -0.99827
   D223       0.99836   0.00001  -0.00080  -0.00011  -0.00091   0.99745
   D224       1.03682   0.00000  -0.00058   0.00018  -0.00041   1.03642
   D225      -3.11793   0.00000  -0.00048   0.00003  -0.00045  -3.11838
   D226      -1.11071   0.00000  -0.00067   0.00025  -0.00041  -1.11113
   D227      -1.09276  -0.00000  -0.00063   0.00018  -0.00045  -1.09321
   D228       1.03567  -0.00000  -0.00053   0.00003  -0.00049   1.03518
   D229       3.04289  -0.00000  -0.00071   0.00025  -0.00046   3.04243
   D230      -3.08732  -0.00000  -0.00040  -0.00002  -0.00043  -3.08774
   D231      -0.95889  -0.00000  -0.00031  -0.00017  -0.00047  -0.95936
   D232       1.04833   0.00000  -0.00049   0.00005  -0.00044   1.04790
   D233       1.05898   0.00000  -0.00067   0.00098   0.00031   1.05929
   D234      -3.06693  -0.00000  -0.00055   0.00082   0.00027  -3.06666
   D235      -1.01925   0.00000  -0.00066   0.00092   0.00026  -1.01899
   D236      -1.07204   0.00001  -0.00082   0.00119   0.00036  -1.07167
   D237       1.08524   0.00000  -0.00070   0.00103   0.00032   1.08557
   D238       3.13292   0.00000  -0.00081   0.00113   0.00032   3.13324
   D239      -3.06863   0.00000  -0.00058   0.00087   0.00030  -3.06834
   D240      -0.91135  -0.00000  -0.00046   0.00072   0.00025  -0.91110
   D241       1.13632  -0.00000  -0.00057   0.00082   0.00025   1.13657
   D242       3.11514   0.00000   0.00005   0.00005   0.00009   3.11523
   D243      -1.06969   0.00000  -0.00001   0.00007   0.00006  -1.06963
   D244       1.03136  -0.00000   0.00008  -0.00004   0.00004   1.03140
   D245       0.96100  -0.00000  -0.00008   0.00020   0.00012   0.96112
   D246       3.05936  -0.00000  -0.00013   0.00022   0.00009   3.05945
   D247      -1.12277  -0.00001  -0.00004   0.00011   0.00006  -1.12271
   D248      -1.08664   0.00000   0.00006   0.00010   0.00016  -1.08648
   D249       1.01172   0.00000   0.00001   0.00012   0.00013   1.01185
   D250       3.11277   0.00000   0.00010   0.00001   0.00011   3.11288
   D251      -1.09099   0.00000   0.00004   0.00016   0.00021  -1.09079
   D252       1.00048   0.00000   0.00005   0.00018   0.00023   1.00070
   D253       3.10197   0.00000   0.00006   0.00010   0.00016   3.10212
   D254       1.08508   0.00000   0.00018  -0.00002   0.00016   1.08524
   D255      -3.10664   0.00000   0.00018  -0.00000   0.00018  -3.10646
   D256      -1.00515  -0.00000   0.00020  -0.00008   0.00011  -1.00504
   D257       3.13692  -0.00000   0.00008   0.00007   0.00015   3.13707
   D258      -1.05479  -0.00000   0.00008   0.00009   0.00017  -1.05462
   D259       1.04670  -0.00000   0.00009   0.00000   0.00010   1.04680
         Item               Value     Threshold  Converged?
 Maximum Force            0.000061     0.000450     YES
 RMS     Force            0.000012     0.000300     YES
 Maximum Displacement     0.005778     0.001800     NO 
 RMS     Displacement     0.001174     0.001200     YES
 Predicted change in Energy=-4.500171D-07
 Lowest energy point so far.  Saving SCF results.
 GradGradGradGradGradGradGradGradGradGradGradGradGradGradGradGradGradGrad

 Leave Link  103 at Mon Jul 28 19:10:16 2025, MaxMem=  1073741824 cpu:               1.2 elap:               0.2
 (Enter /app/gaussian/g16/l202.exe)
 Stoichiometry    C27H46O
 Framework group  C1[X(C27H46O)]
 Deg. of freedom   216
 Full point group                 C1      NOp   1
 RotChk:  IX=0 Diff= 6.94D-05
 Largest Abelian subgroup         C1      NOp   1
 Largest concise Abelian subgroup C1      NOp   1
                         Standard orientation:                         
 ---------------------------------------------------------------------
 Center     Atomic      Atomic             Coordinates (Angstroms)
 Number     Number       Type             X           Y           Z
 ---------------------------------------------------------------------
      1          6           0       -0.995023   -0.307473    1.459368
      2          6           0       -0.734493   -0.405096   -0.064956
      3          6           0        0.100308    0.799513   -0.605391
      4          6           0        1.509145    0.942402   -0.004873
      5          6           0        2.313244   -0.370648   -0.237398
      6          6           0        3.753386   -0.317927    0.397333
      7          6           0        3.706467   -0.505413    1.942582
      8          6           0        4.421790    1.032828    0.079242
      9          6           0        3.743034    2.093768   -0.394244
     10          6           0        2.258180    2.132820   -0.639593
     11          6           0        5.919504    1.123653    0.330881
     12          6           0        6.689627   -0.019667   -0.348624
     13          8           0        8.107694   -0.015268    0.038460
     14          6           0        6.125887   -1.371423    0.071842
     15          6           0        4.619875   -1.456244   -0.241728
     16          6           0        1.505062   -1.627290    0.178945
     17          6           0        0.072328   -1.681203   -0.405793
     18          6           0       -0.864821    1.998292   -0.525949
     19          6           0       -2.257507    1.375286   -0.844488
     20          6           0       -2.076317   -0.187653   -0.861274
     21          6           0       -3.364495   -0.937188   -0.412564
     22          6           0       -4.546497   -0.551348   -1.348465
     23          6           0       -5.934167   -1.127949   -0.982488
     24          6           0       -6.459815   -0.767888    0.425128
     25          6           0       -6.628452    0.741652    0.729179
     26          6           0       -7.633146    1.422397   -0.222430
     27          6           0       -7.054911    0.943514    2.198308
     28          6           0       -3.190303   -2.469699   -0.369744
     29          1           0       -1.540128   -1.190234    1.813633
     30          1           0       -0.066097   -0.245409    2.033661
     31          1           0       -1.595327    0.573162    1.712336
     32          1           0        0.251300    0.587305   -1.680548
     33          1           0        1.426755    1.129593    1.076620
     34          1           0        2.468591   -0.434583   -1.329535
     35          1           0        4.684663   -0.319900    2.396086
     36          1           0        2.995793    0.190957    2.400817
     37          1           0        3.412073   -1.526288    2.209864
     38          1           0        4.292476    3.009304   -0.618774
     39          1           0        1.847387    3.078994   -0.258593
     40          1           0        2.065269    2.144490   -1.726959
     41          1           0        6.291450    2.096123   -0.020061
     42          1           0        6.140593    1.066958    1.407080
     43          1           0        6.620000    0.087520   -1.442576
     44          1           0        8.544449    0.817040   -0.233765
     45          1           0        6.665755   -2.170614   -0.450077
     46          1           0        6.316477   -1.509148    1.144035
     47          1           0        4.239613   -2.429802    0.090225
     48          1           0        4.482669   -1.417990   -1.332981
     49          1           0        2.042296   -2.530660   -0.137181
     50          1           0        1.437474   -1.679624    1.272099
     51          1           0        0.124956   -1.781055   -1.501227
     52          1           0       -0.421681   -2.584495   -0.030754
     53          1           0       -0.849411    2.442520    0.478621
     54          1           0       -0.599169    2.794421   -1.230520
     55          1           0       -2.996695    1.662120   -0.084974
     56          1           0       -2.641173    1.734404   -1.805745
     57          1           0       -1.871006   -0.498960   -1.900432
     58          1           0       -3.610990   -0.591730    0.603414
     59          1           0       -4.625616    0.541477   -1.394030
     60          1           0       -4.294573   -0.880782   -2.369555
     61          1           0       -6.653729   -0.782467   -1.738266
     62          1           0       -5.918354   -2.222451   -1.074554
     63          1           0       -7.437154   -1.256732    0.566472
     64          1           0       -5.792145   -1.202162    1.183993
     65          1           0       -5.650869    1.231388    0.597035
     66          1           0       -7.753325    2.483061    0.031858
     67          1           0       -7.312068    1.366370   -1.268782
     68          1           0       -8.620514    0.945670   -0.146654
     69          1           0       -8.031483    0.476261    2.386437
     70          1           0       -6.329724    0.494538    2.888879
     71          1           0       -7.140621    2.009564    2.443542
     72          1           0       -2.450145   -2.776872    0.373692
     73          1           0       -2.866128   -2.853027   -1.347009
     74          1           0       -4.130800   -2.968191   -0.111361
 ---------------------------------------------------------------------
 Rotational constants (GHZ):           0.5328993           0.0602109           0.0579436
 Leave Link  202 at Mon Jul 28 19:10:16 2025, MaxMem=  1073741824 cpu:               0.1 elap:               0.0
 (Enter /app/gaussian/g16/l301.exe)
 Standard basis: 6-31+G (6D, 7F)
 Ernie: Thresh=  0.10000D-02 Tol=  0.10000D-05 Strict=F.
 There are   456 symmetry adapted cartesian basis functions of A   symmetry.
 There are   456 symmetry adapted basis functions of A   symmetry.
   456 basis functions,   912 primitive gaussians,   456 cartesian basis functions
   108 alpha electrons      108 beta electrons
       nuclear repulsion energy      2810.4668891998 Hartrees.
 IExCor=  402 DFT=T Ex+Corr=B3LYP ExCW=0 ScaHFX=  0.200000
 ScaDFX=  0.800000  0.720000  1.000000  0.810000 ScalE2=  1.000000  1.000000
 IRadAn=      5 IRanWt=     -1 IRanGd=            0 ICorTp=0 IEmpDi=  4
 NAtoms=   74 NActive=   74 NUniq=   74 SFac= 1.00D+00 NAtFMM=   60 NAOKFM=T Big=T
 Integral buffers will be    131072 words long.
 Raffenetti 2 integral format.
 Two-electron integral symmetry is turned on.
 Leave Link  301 at Mon Jul 28 19:10:16 2025, MaxMem=  1073741824 cpu:               0.4 elap:               0.1
 (Enter /app/gaussian/g16/l302.exe)
 NPDir=0 NMtPBC=     1 NCelOv=     1 NCel=       1 NClECP=     1 NCelD=      1
         NCelK=      1 NCelE2=     1 NClLst=     1 CellRange=     0.0.
 One-electron integrals computed using PRISM.
 One-electron integral symmetry used in STVInt
 NBasis=   456 RedAO= T EigKep=  1.02D-06  NBF=   456
 NBsUse=   455 1.00D-06 EigRej=  5.94D-07 NBFU=   455
 Precomputing XC quadrature grid using
 IXCGrd= 4 IRadAn=           5 IRanWt=          -1 IRanGd=           0 AccXCQ= 0.00D+00.
 Generated NRdTot=       0 NPtTot=           0 NUsed=           0 NTot=          32
 NSgBfM=   442   441   442   442   442 MxSgAt=    74 MxSgA2=    74.
 Leave Link  302 at Mon Jul 28 19:10:18 2025, MaxMem=  1073741824 cpu:              11.7 elap:               1.5
 (Enter /app/gaussian/g16/l303.exe)
 DipDrv:  MaxL=1.
 Leave Link  303 at Mon Jul 28 19:10:18 2025, MaxMem=  1073741824 cpu:               0.4 elap:               0.1
 (Enter /app/gaussian/g16/l401.exe)
 Initial guess from the checkpoint file:  "/work/scr/Gau-255599.chk"
 B after Tr=    -0.000000    0.000000    0.000000
         Rot=    1.000000   -0.000020   -0.000007    0.000010 Ang=  -0.00 deg.
 Guess basis will be translated and rotated to current coordinates.
 JPrj=2 DoOrth=T DoCkMO=T.
 Leave Link  401 at Mon Jul 28 19:10:18 2025, MaxMem=  1073741824 cpu:               3.3 elap:               0.4
 (Enter /app/gaussian/g16/l502.exe)
 Integral symmetry usage will be decided dynamically.
 Closed shell SCF:
 Using DIIS extrapolation, IDIIS=  1040.
 NGot=  1073741824 LenX=  1073314746 LenY=  1073106354
 Requested convergence on RMS density matrix=1.00D-08 within 128 cycles.
 Requested convergence on MAX density matrix=1.00D-06.
 Requested convergence on             energy=1.00D-06.
 No special actions if energy rises.
 Fock matrices will be formed incrementally for  20 cycles.

 Cycle   1  Pass 1  IDiag  1:
 FoFJK:  IHMeth= 1 ICntrl=       0 DoSepK=F KAlg= 0 I1Cent=           0 FoldK=F
 IRaf= 990000000 NMat=       1 IRICut=       1 DoRegI=T DoRafI=F ISym2E= 0 IDoP0=0 IntGTp=1.
 FoFCou: FMM=T IPFlag=           0 FMFlag=      100000 FMFlg1=        2001
         NFxFlg=           0 DoJE=F BraDBF=F KetDBF=F FulRan=T
         wScrn=  0.000000 ICntrl=         0 IOpCl=  0 I1Cent=           0 NGrid=           0
         NMat0=    1 NMatS0=      1 NMatT0=    0 NMatD0=    1 NMtDS0=    0 NMtDT0=    0
 Symmetry not used in FoFCou.
 FMM levels:  10  Number of levels for PrismC:   9
 E= -1131.55724735955    
 DIIS: error= 1.85D-04 at cycle   1 NSaved=   1.
 NSaved= 1 IEnMin= 1 EnMin= -1131.55724735955     IErMin= 1 ErrMin= 1.85D-04
 ErrMax= 1.85D-04  0.00D+00 EMaxC= 1.00D-01 BMatC= 9.94D-06 BMatP= 9.94D-06
 IDIUse=3 WtCom= 9.98D-01 WtEn= 1.85D-03
 Coeff-Com:  0.100D+01
 Coeff-En:   0.100D+01
 Coeff:      0.100D+01
 Gap=     0.521 Goal=   None    Shift=    0.000
 RMSDP=1.83D-04 MaxDP=1.48D-02              OVMax= 4.56D-04

 Cycle   2  Pass 1  IDiag  1:
 RMSU=  1.82D-04    CP:  1.00D+00
 E= -1131.55725525488     Delta-E=       -0.000007895328 Rises=F Damp=F
 DIIS: error= 8.69D-06 at cycle   2 NSaved=   2.
 NSaved= 2 IEnMin= 2 EnMin= -1131.55725525488     IErMin= 2 ErrMin= 8.69D-06
 ErrMax= 8.69D-06  0.00D+00 EMaxC= 1.00D-01 BMatC= 6.75D-08 BMatP= 9.94D-06
 IDIUse=1 WtCom= 1.00D+00 WtEn= 0.00D+00
 Coeff-Com: -0.733D-02 0.101D+01
 Coeff:     -0.733D-02 0.101D+01
 Gap=     0.231 Goal=   None    Shift=    0.000
 RMSDP=3.06D-05 MaxDP=1.66D-03 DE=-7.90D-06 OVMax= 7.95D-05

 Cycle   3  Pass 1  IDiag  1:
 RMSU=  3.05D-05    CP:  1.00D+00  9.91D-01
 E= -1131.55725524620     Delta-E=        0.000000008680 Rises=F Damp=F
 DIIS: error= 1.17D-05 at cycle   3 NSaved=   3.
 NSaved= 3 IEnMin= 2 EnMin= -1131.55725525488     IErMin= 2 ErrMin= 8.69D-06
 ErrMax= 1.17D-05  0.00D+00 EMaxC= 1.00D-01 BMatC= 1.03D-07 BMatP= 6.75D-08
 IDIUse=1 WtCom= 1.00D+00 WtEn= 0.00D+00
 Coeff-Com: -0.101D-01 0.565D+00 0.445D+00
 Coeff:     -0.101D-01 0.565D+00 0.445D+00
 Gap=     0.231 Goal=   None    Shift=    0.000
 RMSDP=1.67D-05 MaxDP=1.07D-03 DE= 8.68D-09 OVMax= 4.06D-05

 Cycle   4  Pass 1  IDiag  1:
 RMSU=  8.16D-06    CP:  1.00D+00  1.02D+00  5.69D-01
 E= -1131.55725534864     Delta-E=       -0.000000102445 Rises=F Damp=F
 DIIS: error= 1.92D-06 at cycle   4 NSaved=   4.
 NSaved= 4 IEnMin= 4 EnMin= -1131.55725534864     IErMin= 4 ErrMin= 1.92D-06
 ErrMax= 1.92D-06  0.00D+00 EMaxC= 1.00D-01 BMatC= 1.71D-09 BMatP= 6.75D-08
 IDIUse=1 WtCom= 1.00D+00 WtEn= 0.00D+00
 Coeff-Com: -0.279D-02 0.117D+00 0.148D+00 0.738D+00
 Coeff:     -0.279D-02 0.117D+00 0.148D+00 0.738D+00
 Gap=     0.231 Goal=   None    Shift=    0.000
 RMSDP=3.34D-06 MaxDP=3.23D-04 DE=-1.02D-07 OVMax= 1.23D-05

 Cycle   5  Pass 1  IDiag  1:
 RMSU=  2.49D-06    CP:  1.00D+00  1.02D+00  5.70D-01  7.49D-01
 E= -1131.55725534954     Delta-E=       -0.000000000900 Rises=F Damp=F
 DIIS: error= 1.28D-06 at cycle   5 NSaved=   5.
 NSaved= 5 IEnMin= 5 EnMin= -1131.55725534954     IErMin= 5 ErrMin= 1.28D-06
 ErrMax= 1.28D-06  0.00D+00 EMaxC= 1.00D-01 BMatC= 7.79D-10 BMatP= 1.71D-09
 IDIUse=1 WtCom= 1.00D+00 WtEn= 0.00D+00
 Coeff-Com: -0.402D-03-0.174D-02 0.324D-01 0.447D+00 0.522D+00
 Coeff:     -0.402D-03-0.174D-02 0.324D-01 0.447D+00 0.522D+00
 Gap=     0.231 Goal=   None    Shift=    0.000
 RMSDP=9.26D-07 MaxDP=8.66D-05 DE=-9.00D-10 OVMax= 6.04D-06

 Cycle   6  Pass 1  IDiag  1:
 RMSU=  6.99D-07    CP:  1.00D+00  1.02D+00  5.72D-01  7.62D-01  7.89D-01
 E= -1131.55725534984     Delta-E=       -0.000000000296 Rises=F Damp=F
 DIIS: error= 1.58D-07 at cycle   6 NSaved=   6.
 NSaved= 6 IEnMin= 6 EnMin= -1131.55725534984     IErMin= 6 ErrMin= 1.58D-07
 ErrMax= 1.58D-07  0.00D+00 EMaxC= 1.00D-01 BMatC= 2.25D-11 BMatP= 7.79D-10
 IDIUse=1 WtCom= 1.00D+00 WtEn= 0.00D+00
 Coeff-Com:  0.640D-05-0.872D-02 0.441D-02 0.147D+00 0.230D+00 0.627D+00
 Coeff:      0.640D-05-0.872D-02 0.441D-02 0.147D+00 0.230D+00 0.627D+00
 Gap=     0.231 Goal=   None    Shift=    0.000
 RMSDP=4.98D-07 MaxDP=3.47D-05 DE=-2.96D-10 OVMax= 1.54D-06

 Cycle   7  Pass 1  IDiag  1:
 RMSU=  1.92D-07    CP:  1.00D+00  1.02D+00  5.76D-01  7.98D-01  7.28D-01
                    CP:  6.25D-01
 E= -1131.55725535025     Delta-E=       -0.000000000411 Rises=F Damp=F
 DIIS: error= 6.37D-08 at cycle   7 NSaved=   7.
 NSaved= 7 IEnMin= 7 EnMin= -1131.55725535025     IErMin= 7 ErrMin= 6.37D-08
 ErrMax= 6.37D-08  0.00D+00 EMaxC= 1.00D-01 BMatC= 2.65D-12 BMatP= 2.25D-11
 IDIUse=1 WtCom= 1.00D+00 WtEn= 0.00D+00
 Coeff-Com:  0.261D-04-0.478D-02 0.666D-03 0.567D-01 0.985D-01 0.345D+00
 Coeff-Com:  0.504D+00
 Coeff:      0.261D-04-0.478D-02 0.666D-03 0.567D-01 0.985D-01 0.345D+00
 Coeff:      0.504D+00
 Gap=     0.231 Goal=   None    Shift=    0.000
 RMSDP=9.32D-08 MaxDP=9.57D-06 DE=-4.11D-10 OVMax= 6.48D-07

 Cycle   8  Pass 1  IDiag  1:
 RMSU=  5.28D-08    CP:  1.00D+00  1.02D+00  5.77D-01  7.95D-01  7.35D-01
                    CP:  6.55D-01  7.48D-01
 E= -1131.55725535031     Delta-E=       -0.000000000059 Rises=F Damp=F
 DIIS: error= 2.61D-08 at cycle   8 NSaved=   8.
 NSaved= 8 IEnMin= 8 EnMin= -1131.55725535031     IErMin= 8 ErrMin= 2.61D-08
 ErrMax= 2.61D-08  0.00D+00 EMaxC= 1.00D-01 BMatC= 1.78D-13 BMatP= 2.65D-12
 IDIUse=1 WtCom= 1.00D+00 WtEn= 0.00D+00
 Coeff-Com:  0.124D-04-0.176D-02-0.202D-04 0.174D-01 0.323D-01 0.130D+00
 Coeff-Com:  0.264D+00 0.557D+00
 Coeff:      0.124D-04-0.176D-02-0.202D-04 0.174D-01 0.323D-01 0.130D+00
 Coeff:      0.264D+00 0.557D+00
 Gap=     0.231 Goal=   None    Shift=    0.000
 RMSDP=2.32D-08 MaxDP=1.58D-06 DE=-5.91D-11 OVMax= 2.80D-07

 Cycle   9  Pass 1  IDiag  1:
 RMSU=  1.66D-08    CP:  1.00D+00  1.02D+00  5.77D-01  7.95D-01  7.37D-01
                    CP:  6.57D-01  7.21D-01  7.44D-01
 E= -1131.55725535013     Delta-E=        0.000000000180 Rises=F Damp=F
 DIIS: error= 1.17D-08 at cycle   9 NSaved=   9.
 NSaved= 9 IEnMin= 8 EnMin= -1131.55725535031     IErMin= 9 ErrMin= 1.17D-08
 ErrMax= 1.17D-08  0.00D+00 EMaxC= 1.00D-01 BMatC= 3.79D-14 BMatP= 1.78D-13
 IDIUse=1 WtCom= 1.00D+00 WtEn= 0.00D+00
 Coeff-Com:  0.400D-05-0.416D-03-0.114D-03 0.264D-02 0.593D-02 0.318D-01
 Coeff-Com:  0.940D-01 0.354D+00 0.512D+00
 Coeff:      0.400D-05-0.416D-03-0.114D-03 0.264D-02 0.593D-02 0.318D-01
 Coeff:      0.940D-01 0.354D+00 0.512D+00
 Gap=     0.231 Goal=   None    Shift=    0.000
 RMSDP=1.02D-08 MaxDP=8.31D-07 DE= 1.80D-10 OVMax= 9.15D-08

 Cycle  10  Pass 1  IDiag  1:
 RMSU=  6.46D-09    CP:  1.00D+00  1.02D+00  5.77D-01  7.95D-01  7.39D-01
                    CP:  6.57D-01  7.22D-01  7.49D-01  1.02D+00
 E= -1131.55725535026     Delta-E=       -0.000000000130 Rises=F Damp=F
 DIIS: error= 1.03D-09 at cycle  10 NSaved=  10.
 NSaved=10 IEnMin= 8 EnMin= -1131.55725535031     IErMin=10 ErrMin= 1.03D-09
 ErrMax= 1.03D-09  0.00D+00 EMaxC= 1.00D-01 BMatC= 8.38D-16 BMatP= 3.79D-14
 IDIUse=1 WtCom= 1.00D+00 WtEn= 0.00D+00
 Coeff-Com:  0.417D-06 0.407D-06-0.432D-04-0.573D-03-0.631D-03 0.494D-03
 Coeff-Com:  0.125D-01 0.873D-01 0.191D+00 0.710D+00
 Coeff:      0.417D-06 0.407D-06-0.432D-04-0.573D-03-0.631D-03 0.494D-03
 Coeff:      0.125D-01 0.873D-01 0.191D+00 0.710D+00
 Gap=     0.231 Goal=   None    Shift=    0.000
 RMSDP=3.31D-09 MaxDP=2.51D-07 DE=-1.30D-10 OVMax= 8.84D-09

 SCF Done:  E(RB3LYP) =  -1131.55725535     A.U. after   10 cycles
            NFock= 10  Conv=0.33D-08     -V/T= 2.0059
 KE= 1.124917357454D+03 PE=-8.242692756258D+03 EE= 3.175751254254D+03
 Leave Link  502 at Mon Jul 28 19:13:32 2025, MaxMem=  1073741824 cpu:            1544.6 elap:             193.7
 (Enter /app/gaussian/g16/l701.exe)
 ... and contract with generalized density number  0.
 Compute integral first derivatives.
 Leave Link  701 at Mon Jul 28 19:13:32 2025, MaxMem=  1073741824 cpu:               1.9 elap:               0.3
 (Enter /app/gaussian/g16/l702.exe)
 L702 exits ... SP integral derivatives will be done elsewhere.
 Leave Link  702 at Mon Jul 28 19:13:32 2025, MaxMem=  1073741824 cpu:               0.1 elap:               0.0
 (Enter /app/gaussian/g16/l703.exe)
 Integral derivatives from FoFJK, PRISM(SPDF).
 Compute integral first derivatives, UseDBF=F ICtDFT=           0.
 Calling FoFJK, ICntrl=      2127 FMM=T ISym2X=0 I1Cent= 0 IOpClX= 0 NMat=1 NMatS=1 NMatT=0.
 FoFJK:  IHMeth= 1 ICntrl=    2127 DoSepK=F KAlg= 0 I1Cent=           0 FoldK=F
 IRaf=         0 NMat=       1 IRICut=       1 DoRegI=T DoRafI=F ISym2E= 0 IDoP0=0 IntGTp=1.
 FoFCou: FMM=T IPFlag=           0 FMFlag=      100000 FMFlg1=        2001
         NFxFlg=           0 DoJE=F BraDBF=F KetDBF=F FulRan=T
         wScrn=  0.000000 ICntrl=      2127 IOpCl=  0 I1Cent=           0 NGrid=           0
         NMat0=    1 NMatS0=      1 NMatT0=    0 NMatD0=    1 NMtDS0=    0 NMtDT0=    0
 Symmetry not used in FoFCou.
 FMM levels:  10  Number of levels for PrismC:   9
 Leave Link  703 at Mon Jul 28 19:14:23 2025, MaxMem=  1073741824 cpu:             406.7 elap:              51.0
 (Enter /app/gaussian/g16/l716.exe)
 Dipole        =-5.86254068D-01 4.50995345D-01-3.15568247D-01
 ***** Axes restored to original set *****
 -------------------------------------------------------------------
 Center     Atomic                   Forces (Hartrees/Bohr)
 Number     Number              X              Y              Z
 -------------------------------------------------------------------
      1        6          -0.000003292    0.000000046    0.000005501
      2        6           0.000008625    0.000007048   -0.000014635
      3        6           0.000002108    0.000001619    0.000020726
      4        6          -0.000006389   -0.000001254    0.000000438
      5        6           0.000024097   -0.000003739    0.000012937
      6        6           0.000000515    0.000024625    0.000017362
      7        6          -0.000012180   -0.000007397    0.000009905
      8        6           0.000003675   -0.000000571   -0.000010169
      9        6          -0.000012855   -0.000012080    0.000003221
     10        6           0.000012842   -0.000008748    0.000009027
     11        6          -0.000007527   -0.000000187   -0.000010325
     12        6           0.000013241   -0.000006846    0.000038002
     13        8          -0.000000895   -0.000024497   -0.000006782
     14        6          -0.000015370    0.000006789   -0.000008563
     15        6           0.000003920    0.000009564    0.000025222
     16        6           0.000006286    0.000010785   -0.000003573
     17        6          -0.000006382   -0.000010580   -0.000004571
     18        6          -0.000006028    0.000001505   -0.000021061
     19        6          -0.000009735    0.000002180   -0.000012976
     20        6          -0.000001306   -0.000000328    0.000016093
     21        6           0.000006311    0.000002548   -0.000004184
     22        6           0.000007677   -0.000009425   -0.000001266
     23        6           0.000000392    0.000015774   -0.000004612
     24        6          -0.000000641    0.000006552    0.000011425
     25        6           0.000005463   -0.000003597    0.000010329
     26        6          -0.000007544   -0.000011167   -0.000002491
     27        6          -0.000001248   -0.000012747   -0.000000731
     28        6           0.000017202   -0.000012299    0.000014906
     29        1           0.000004862    0.000003563    0.000008747
     30        1          -0.000011239   -0.000000194    0.000000606
     31        1          -0.000004242    0.000006654    0.000001534
     32        1           0.000005116   -0.000005194   -0.000003452
     33        1           0.000005741    0.000006379   -0.000002319
     34        1           0.000001868    0.000001090    0.000000478
     35        1          -0.000009169   -0.000000951   -0.000004207
     36        1          -0.000004088    0.000004395   -0.000001231
     37        1          -0.000007931   -0.000002629   -0.000006227
     38        1          -0.000001191    0.000000502    0.000001104
     39        1          -0.000008032    0.000004522   -0.000006716
     40        1           0.000004983    0.000004182   -0.000002751
     41        1          -0.000004962    0.000006370   -0.000003553
     42        1          -0.000003081    0.000010702    0.000010282
     43        1          -0.000007160   -0.000007022   -0.000002925
     44        1          -0.000009193    0.000009321   -0.000005001
     45        1           0.000003633   -0.000003911   -0.000002768
     46        1           0.000007827   -0.000007921   -0.000017099
     47        1           0.000010151   -0.000000417   -0.000000996
     48        1           0.000002191   -0.000006464   -0.000002364
     49        1           0.000001284   -0.000003246   -0.000004375
     50        1           0.000012177   -0.000004904   -0.000015723
     51        1          -0.000001592   -0.000005292   -0.000005898
     52        1          -0.000013372   -0.000014139   -0.000009498
     53        1          -0.000004497    0.000010743    0.000005085
     54        1           0.000002518    0.000004948    0.000001758
     55        1          -0.000005310    0.000005830    0.000008137
     56        1          -0.000010819   -0.000004916   -0.000000958
     57        1          -0.000001815   -0.000002060   -0.000011422
     58        1           0.000004267    0.000002377    0.000001118
     59        1          -0.000007984    0.000010592    0.000010888
     60        1           0.000001023   -0.000000022   -0.000000454
     61        1          -0.000004100   -0.000001082    0.000001113
     62        1          -0.000005764   -0.000000877    0.000002014
     63        1           0.000000397    0.000004539    0.000002539
     64        1           0.000006148   -0.000002429   -0.000005573
     65        1           0.000000557   -0.000004230   -0.000001277
     66        1           0.000001966    0.000000547    0.000002181
     67        1          -0.000001824    0.000001214    0.000002179
     68        1           0.000003127    0.000002553    0.000003527
     69        1           0.000001672    0.000004350   -0.000003423
     70        1          -0.000001870    0.000006332   -0.000005108
     71        1           0.000001342    0.000002145   -0.000003878
     72        1           0.000015144   -0.000002256   -0.000009870
     73        1          -0.000003974    0.000003020   -0.000004760
     74        1           0.000014253   -0.000000292   -0.000008619
 -------------------------------------------------------------------
 Cartesian Forces:  Max     0.000038002 RMS     0.000008321
 Leave Link  716 at Mon Jul 28 19:14:24 2025, MaxMem=  1073741824 cpu:               0.2 elap:               0.0
 (Enter /app/gaussian/g16/l103.exe)

 GradGradGradGradGradGradGradGradGradGradGradGradGradGradGradGradGradGrad
 Berny optimization.
 Using GEDIIS/GDIIS optimizer.
 FormGI is forming the generalized inverse of G from B-inverse, IUseBI=4.
 Internal  Forces:  Max     0.000048170 RMS     0.000008376
 Search for a local minimum.
 Step number   8 out of a maximum of  444
 All quantities printed in internal units (Hartrees-Bohrs-Radians)
 RMS Force = .83763D-05 SwitMx=.10000D-02 MixMth= 2
 Mixed Optimization -- En-DIIS/RFO-DIIS
 Swapping is turned off.
 Update second derivatives using D2CorX and points    1    2    3    4    5
                                                      6    7    8
 DE= -2.20D-07 DEPred=-4.50D-07 R= 4.90D-01
 Trust test= 4.90D-01 RLast= 9.02D-03 DXMaxT set to 8.11D-01
 ITU=  0  1  1  1  0  1  1  0
     Eigenvalues ---    0.00215   0.00229   0.00234   0.00235   0.00307
     Eigenvalues ---    0.00311   0.00336   0.00352   0.00358   0.00382
     Eigenvalues ---    0.00402   0.00467   0.00510   0.00527   0.00570
     Eigenvalues ---    0.00647   0.00784   0.00979   0.01206   0.01294
     Eigenvalues ---    0.01541   0.01644   0.01730   0.02197   0.02356
     Eigenvalues ---    0.02474   0.02673   0.03062   0.03121   0.03175
     Eigenvalues ---    0.03188   0.03247   0.03404   0.03489   0.03521
     Eigenvalues ---    0.03670   0.03761   0.03866   0.03880   0.04273
     Eigenvalues ---    0.04369   0.04385   0.04486   0.04601   0.04637
     Eigenvalues ---    0.04685   0.04692   0.04703   0.04714   0.04744
     Eigenvalues ---    0.04807   0.04821   0.04844   0.04923   0.04976
     Eigenvalues ---    0.05055   0.05098   0.05216   0.05265   0.05352
     Eigenvalues ---    0.05395   0.05419   0.05427   0.05429   0.05443
     Eigenvalues ---    0.05469   0.05497   0.05539   0.05541   0.05549
     Eigenvalues ---    0.05582   0.05594   0.05643   0.05818   0.05882
     Eigenvalues ---    0.06019   0.06097   0.06597   0.06970   0.07093
     Eigenvalues ---    0.07344   0.07492   0.07742   0.08047   0.08094
     Eigenvalues ---    0.08149   0.08252   0.08659   0.08736   0.08860
     Eigenvalues ---    0.08922   0.09017   0.09178   0.09343   0.09534
     Eigenvalues ---    0.10328   0.10390   0.10798   0.11361   0.12424
     Eigenvalues ---    0.12625   0.12636   0.12730   0.12833   0.13636
     Eigenvalues ---    0.13900   0.14601   0.15100   0.15418   0.15760
     Eigenvalues ---    0.15822   0.15993   0.16000   0.16000   0.16000
     Eigenvalues ---    0.16000   0.16000   0.16000   0.16000   0.16000
     Eigenvalues ---    0.16000   0.16008   0.16018   0.16044   0.16155
     Eigenvalues ---    0.16241   0.16585   0.16893   0.16999   0.17886
     Eigenvalues ---    0.17969   0.18575   0.19416   0.19784   0.21454
     Eigenvalues ---    0.21878   0.21934   0.22110   0.22193   0.22539
     Eigenvalues ---    0.23273   0.25382   0.25563   0.25978   0.26253
     Eigenvalues ---    0.26913   0.27020   0.27150   0.27466   0.27857
     Eigenvalues ---    0.27867   0.28227   0.28377   0.28412   0.28559
     Eigenvalues ---    0.28639   0.28780   0.28961   0.28968   0.29143
     Eigenvalues ---    0.29302   0.29388   0.29422   0.29530   0.30224
     Eigenvalues ---    0.30462   0.31123   0.31632   0.33265   0.33453
     Eigenvalues ---    0.33577   0.33722   0.33823   0.33860   0.33893
     Eigenvalues ---    0.33920   0.33929   0.33963   0.33980   0.34000
     Eigenvalues ---    0.34014   0.34022   0.34035   0.34065   0.34076
     Eigenvalues ---    0.34116   0.34124   0.34132   0.34136   0.34140
     Eigenvalues ---    0.34151   0.34165   0.34184   0.34190   0.34201
     Eigenvalues ---    0.34213   0.34223   0.34229   0.34235   0.34249
     Eigenvalues ---    0.34258   0.34263   0.34281   0.34309   0.34326
     Eigenvalues ---    0.34346   0.34445   0.34487   0.34570   0.34650
     Eigenvalues ---    0.34984   0.35070   0.35430   0.38371   0.52850
     Eigenvalues ---    0.53503
 En-DIIS/RFO-DIIS/Sim-DIIS IScMMF=       -3 using points:     8    7    6    5    4    3    2
 RFO step:  Lambda=-2.50290979D-07.
 NNeg= 0 NGDIIS= 7 SimSw=  2.50D-01 Rises=F DC= -2.20D-07 SmlDif=  1.00D-05
 NRisDI= 0 DoIntr=F SqrtH=F CThrHd= 10.0 CDAdj=  3.0
 RMS Error=  0.1682554006D-03 NUsed= 7 OKEnD=F EnDIS=F
 InvSVX:  RCond= 9.86D-06 Info=           0 Equed=N FErr=  5.02D-15 BErr=  7.09D-17
 DidBck=T Rises=F RFO-DIIS coefs:    0.73691    0.33929   -0.07033    0.00437   -0.00744
                  RFO-DIIS coefs:   -0.00073   -0.00207
 Iteration  1 RMS(Cart)=  0.00076426 RMS(Int)=  0.00000011
 Iteration  2 RMS(Cart)=  0.00000022 RMS(Int)=  0.00000005
 ITry= 1 IFail=0 DXMaxC= 4.88D-03 DCOld= 1.00D+10 DXMaxT= 8.11D-01 DXLimC= 3.00D+00 Rises=F
 Variable       Old X    -DE/DX   Delta X   Delta X   Delta X     New X
                                 (Linear)    (Quad)   (Total)
    R1        2.92814   0.00001  -0.00001   0.00004   0.00003   2.92817
    R2        2.07174   0.00001  -0.00001   0.00003   0.00002   2.07176
    R3        2.06713   0.00001   0.00000   0.00001   0.00002   2.06714
    R4        2.06999  -0.00001  -0.00001   0.00001  -0.00001   2.06998
    R5        2.95187  -0.00001   0.00004  -0.00006  -0.00001   2.95186
    R6        2.92485  -0.00001  -0.00003   0.00002  -0.00001   2.92484
    R7        2.97708   0.00003   0.00003   0.00004   0.00008   2.97716
    R8        2.90665   0.00000  -0.00002   0.00002   0.00001   2.90666
    R9        2.91218  -0.00002  -0.00002  -0.00005  -0.00007   2.91211
   R10        2.09051  -0.00000  -0.00000   0.00000   0.00000   2.09052
   R11        2.94260  -0.00001  -0.00001   0.00000  -0.00001   2.94260
   R12        2.91595   0.00000   0.00000   0.00001   0.00001   2.91596
   R13        2.07995  -0.00001  -0.00000  -0.00000  -0.00001   2.07994
   R14        2.97575   0.00005   0.00003   0.00005   0.00008   2.97583
   R15        2.93099  -0.00001   0.00001  -0.00004  -0.00003   2.93097
   R16        2.08811  -0.00000  -0.00001   0.00001   0.00001   2.08812
   R17        2.94285   0.00000   0.00001  -0.00001  -0.00000   2.94285
   R18        2.91072   0.00001  -0.00002   0.00007   0.00005   2.91077
   R19        2.96089  -0.00001   0.00004  -0.00006  -0.00003   2.96086
   R20        2.06746   0.00001  -0.00001   0.00002   0.00001   2.06747
   R21        2.07006  -0.00001  -0.00000  -0.00001  -0.00001   2.07006
   R22        2.07034  -0.00001  -0.00001   0.00001  -0.00001   2.07034
   R23        2.54271  -0.00000   0.00001  -0.00002  -0.00001   2.54270
   R24        2.87507   0.00001   0.00001  -0.00000   0.00001   2.87507
   R25        2.84497   0.00001  -0.00003   0.00006   0.00003   2.84500
   R26        2.06189  -0.00000  -0.00000   0.00000   0.00000   2.06189
   R27        2.07797  -0.00001   0.00000  -0.00002  -0.00002   2.07796
   R28        2.08703   0.00001  -0.00001   0.00002   0.00002   2.08704
   R29        2.90428  -0.00002   0.00002  -0.00010  -0.00008   2.90420
   R30        2.07629  -0.00000  -0.00002   0.00003   0.00001   2.07630
   R31        2.07895   0.00001  -0.00001   0.00002   0.00001   2.07897
   R32        2.77781   0.00001   0.00001   0.00004   0.00005   2.77786
   R33        2.87949   0.00000   0.00001  -0.00001  -0.00000   2.87948
   R34        2.08133   0.00000  -0.00002   0.00002   0.00000   2.08134
   R35        1.84923   0.00000  -0.00000   0.00001   0.00000   1.84923
   R36        2.91140   0.00002  -0.00002   0.00007   0.00005   2.91145
   R37        2.07230  -0.00000  -0.00002   0.00001  -0.00000   2.07230
   R38        2.07431  -0.00002  -0.00000  -0.00003  -0.00003   2.07428
   R39        2.07234   0.00000  -0.00001   0.00002   0.00001   2.07235
   R40        2.07966  -0.00000  -0.00000   0.00000  -0.00000   2.07966
   R41        2.92606  -0.00000  -0.00003   0.00003   0.00000   2.92606
   R42        2.07408  -0.00000  -0.00001   0.00001  -0.00000   2.07408
   R43        2.07207  -0.00001   0.00001  -0.00003  -0.00003   2.07204
   R44        2.08103   0.00000  -0.00000   0.00001   0.00000   2.08104
   R45        2.07064  -0.00002  -0.00001  -0.00002  -0.00003   2.07061
   R46        2.94529  -0.00001  -0.00002  -0.00002  -0.00005   2.94525
   R47        2.07589  -0.00000  -0.00001   0.00000  -0.00000   2.07589
   R48        2.07079  -0.00000  -0.00001   0.00000  -0.00000   2.07079
   R49        2.97348  -0.00000  -0.00001   0.00001   0.00000   2.97348
   R50        2.07486  -0.00000  -0.00000  -0.00000  -0.00000   2.07486
   R51        2.07025  -0.00000  -0.00001   0.00000  -0.00000   2.07024
   R52        2.94127   0.00005  -0.00000   0.00011   0.00010   2.94137
   R53        2.08634   0.00001  -0.00001   0.00003   0.00002   2.08636
   R54        2.94089  -0.00001  -0.00003   0.00004   0.00000   2.94089
   R55        2.91580  -0.00002  -0.00001  -0.00003  -0.00004   2.91576
   R56        2.08068   0.00000  -0.00000   0.00001   0.00001   2.08069
   R57        2.92269   0.00001  -0.00001   0.00002   0.00001   2.92270
   R58        2.07233  -0.00002  -0.00000  -0.00003  -0.00003   2.07230
   R59        2.08266   0.00000  -0.00001   0.00002   0.00001   2.08267
   R60        2.91982   0.00001  -0.00001   0.00003   0.00003   2.91984
   R61        2.07726  -0.00000  -0.00001   0.00001  -0.00000   2.07726
   R62        2.07583   0.00000   0.00000  -0.00000  -0.00000   2.07583
   R63        2.92731   0.00001  -0.00000   0.00004   0.00004   2.92734
   R64        2.08225   0.00000  -0.00001   0.00002   0.00001   2.08226
   R65        2.07892  -0.00001  -0.00001  -0.00001  -0.00001   2.07890
   R66        2.91434  -0.00001   0.00001  -0.00002  -0.00002   2.91432
   R67        2.91591  -0.00001  -0.00000  -0.00002  -0.00003   2.91588
   R68        2.08125   0.00000  -0.00000   0.00001   0.00001   2.08126
   R69        2.07364  -0.00000  -0.00001   0.00001   0.00000   2.07364
   R70        2.07102  -0.00000  -0.00001   0.00001   0.00000   2.07103
   R71        2.07690   0.00000  -0.00000   0.00001   0.00001   2.07691
   R72        2.07647   0.00000  -0.00000   0.00001   0.00000   2.07648
   R73        2.07385  -0.00000  -0.00001   0.00001  -0.00000   2.07385
   R74        2.07350  -0.00000  -0.00001   0.00001   0.00000   2.07350
   R75        2.06568  -0.00002  -0.00002  -0.00001  -0.00002   2.06565
   R76        2.07619   0.00001   0.00000   0.00001   0.00001   2.07620
   R77        2.06991   0.00001   0.00000   0.00001   0.00001   2.06992
    A1        1.92918   0.00001  -0.00001   0.00006   0.00004   1.92922
    A2        1.95764  -0.00001  -0.00004   0.00003  -0.00001   1.95763
    A3        1.94979   0.00000   0.00001  -0.00002  -0.00001   1.94977
    A4        1.87368   0.00000   0.00000   0.00001   0.00001   1.87368
    A5        1.87573  -0.00000   0.00001  -0.00001  -0.00001   1.87572
    A6        1.87395   0.00000   0.00004  -0.00006  -0.00002   1.87393
    A7        1.96235  -0.00000   0.00007  -0.00011  -0.00004   1.96231
    A8        1.93502  -0.00001  -0.00009   0.00010   0.00000   1.93502
    A9        1.92341   0.00000  -0.00001   0.00010   0.00008   1.92349
   A10        1.85567  -0.00001  -0.00008  -0.00010  -0.00018   1.85550
   A11        1.74555   0.00000   0.00010  -0.00002   0.00007   1.74562
   A12        2.03362   0.00001   0.00005   0.00000   0.00005   2.03367
   A13        2.01093   0.00001   0.00001   0.00001   0.00001   2.01095
   A14        1.82074   0.00001   0.00009  -0.00004   0.00006   1.82080
   A15        1.83513  -0.00000  -0.00004   0.00006   0.00001   1.83514
   A16        2.07287  -0.00001   0.00003  -0.00011  -0.00008   2.07279
   A17        1.84653   0.00001  -0.00004   0.00008   0.00004   1.84657
   A18        1.85960  -0.00000  -0.00006   0.00002  -0.00004   1.85955
   A19        1.91383   0.00000  -0.00001   0.00000  -0.00001   1.91382
   A20        1.93445  -0.00001   0.00002  -0.00006  -0.00004   1.93441
   A21        1.90801  -0.00000   0.00001  -0.00003  -0.00002   1.90799
   A22        1.91605   0.00000  -0.00001   0.00001   0.00000   1.91605
   A23        1.90582  -0.00000  -0.00001   0.00003   0.00002   1.90584
   A24        1.88526   0.00000  -0.00000   0.00005   0.00004   1.88530
   A25        1.96475  -0.00000   0.00002   0.00003   0.00004   1.96479
   A26        1.95415  -0.00001  -0.00003   0.00002  -0.00000   1.95415
   A27        1.84313   0.00000  -0.00003  -0.00002  -0.00005   1.84308
   A28        1.97737   0.00002   0.00006   0.00007   0.00012   1.97750
   A29        1.84602  -0.00001  -0.00002  -0.00004  -0.00006   1.84596
   A30        1.86679  -0.00001  -0.00000  -0.00008  -0.00008   1.86671
   A31        1.94806   0.00003   0.00005   0.00011   0.00015   1.94822
   A32        1.92089  -0.00001  -0.00002   0.00000  -0.00002   1.92087
   A33        1.89340   0.00000   0.00003  -0.00001   0.00001   1.89341
   A34        1.90030  -0.00001  -0.00004  -0.00001  -0.00005   1.90024
   A35        1.91124  -0.00001   0.00002  -0.00009  -0.00007   1.91117
   A36        1.88904   0.00001  -0.00003   0.00000  -0.00003   1.88901
   A37        1.94331  -0.00001  -0.00002  -0.00001  -0.00003   1.94328
   A38        1.93702   0.00000  -0.00000   0.00001   0.00001   1.93703
   A39        1.94159  -0.00000  -0.00001   0.00001  -0.00000   1.94159
   A40        1.87430   0.00000   0.00001   0.00000   0.00001   1.87431
   A41        1.87248   0.00000   0.00001  -0.00002  -0.00001   1.87248
   A42        1.89228   0.00000   0.00002   0.00001   0.00003   1.89230
   A43        2.14746   0.00001  -0.00000   0.00004   0.00004   2.14749
   A44        2.03240  -0.00000  -0.00000  -0.00001  -0.00001   2.03239
   A45        2.10333  -0.00000   0.00001  -0.00004  -0.00003   2.10330
   A46        2.18381  -0.00000   0.00002  -0.00004  -0.00002   2.18379
   A47        2.07145   0.00000  -0.00001   0.00001   0.00000   2.07145
   A48        2.02791   0.00000  -0.00001   0.00002   0.00002   2.02793
   A49        1.97330   0.00001   0.00001  -0.00001   0.00000   1.97330
   A50        1.91766   0.00001  -0.00002   0.00008   0.00006   1.91772
   A51        1.90536  -0.00001   0.00000  -0.00004  -0.00004   1.90531
   A52        1.91167  -0.00001  -0.00000  -0.00001  -0.00001   1.91166
   A53        1.91029   0.00000   0.00000   0.00001   0.00001   1.91030
   A54        1.84086  -0.00000  -0.00000  -0.00002  -0.00002   1.84084
   A55        1.95600   0.00001  -0.00004   0.00004   0.00000   1.95600
   A56        1.91055   0.00000  -0.00000   0.00004   0.00004   1.91059
   A57        1.93538  -0.00000  -0.00000   0.00000  -0.00000   1.93537
   A58        1.92579  -0.00001   0.00002  -0.00006  -0.00003   1.92576
   A59        1.86865  -0.00001   0.00001  -0.00008  -0.00007   1.86859
   A60        1.86506   0.00001   0.00001   0.00005   0.00006   1.86512
   A61        1.94416  -0.00001   0.00001  -0.00004  -0.00003   1.94413
   A62        1.93110  -0.00000  -0.00004   0.00008   0.00004   1.93114
   A63        1.91248   0.00000   0.00004  -0.00006  -0.00002   1.91246
   A64        1.86178   0.00001  -0.00002   0.00009   0.00007   1.86186
   A65        1.89890  -0.00001  -0.00001  -0.00007  -0.00008   1.89882
   A66        1.91455   0.00000   0.00002  -0.00000   0.00002   1.91457
   A67        1.93891   0.00001  -0.00006   0.00011   0.00005   1.93896
   A68        1.93299   0.00001  -0.00001   0.00007   0.00006   1.93305
   A69        1.91033  -0.00000   0.00000   0.00001   0.00001   1.91034
   A70        1.89294  -0.00001  -0.00001  -0.00006  -0.00008   1.89286
   A71        1.92223  -0.00000   0.00001   0.00001   0.00002   1.92225
   A72        1.94081  -0.00001  -0.00000  -0.00005  -0.00005   1.94076
   A73        1.86290   0.00001   0.00002   0.00002   0.00004   1.86294
   A74        2.00157  -0.00001   0.00000  -0.00003  -0.00002   2.00155
   A75        1.90683  -0.00000   0.00000  -0.00002  -0.00002   1.90682
   A76        1.88624  -0.00000   0.00003  -0.00010  -0.00007   1.88617
   A77        1.90310   0.00001  -0.00003   0.00012   0.00010   1.90320
   A78        1.89840   0.00000  -0.00001   0.00001   0.00000   1.89840
   A79        1.86271  -0.00000   0.00001   0.00001   0.00001   1.86272
   A80        1.99213   0.00001   0.00001  -0.00003  -0.00002   1.99211
   A81        1.91186  -0.00001   0.00004  -0.00005  -0.00001   1.91186
   A82        1.91602   0.00000  -0.00002  -0.00001  -0.00002   1.91599
   A83        1.89177  -0.00000  -0.00001   0.00006   0.00005   1.89182
   A84        1.89420  -0.00001  -0.00003  -0.00002  -0.00005   1.89415
   A85        1.85255   0.00001   0.00001   0.00004   0.00005   1.85260
   A86        1.95031   0.00000  -0.00010   0.00011   0.00001   1.95032
   A87        1.89518   0.00000   0.00003  -0.00005  -0.00001   1.89517
   A88        1.94904  -0.00000   0.00002  -0.00002  -0.00000   1.94904
   A89        1.91196   0.00000   0.00005  -0.00006  -0.00000   1.91196
   A90        1.89296  -0.00001  -0.00003   0.00001  -0.00002   1.89293
   A91        1.86217   0.00000   0.00003   0.00001   0.00003   1.86220
   A92        1.81124   0.00000   0.00003  -0.00003  -0.00000   1.81124
   A93        1.93150  -0.00001   0.00001  -0.00007  -0.00005   1.93144
   A94        1.96079   0.00000  -0.00002   0.00002   0.00001   1.96080
   A95        1.94022   0.00000  -0.00001   0.00000  -0.00000   1.94022
   A96        1.95586  -0.00000  -0.00000   0.00001   0.00000   1.95586
   A97        1.86584   0.00000  -0.00001   0.00006   0.00005   1.86589
   A98        1.87164   0.00001   0.00006   0.00001   0.00007   1.87171
   A99        1.93454   0.00000  -0.00003  -0.00000  -0.00003   1.93450
   A100       1.94039  -0.00001   0.00001  -0.00005  -0.00004   1.94035
   A101       1.92239  -0.00001  -0.00004  -0.00004  -0.00008   1.92231
   A102       1.93539   0.00000   0.00001   0.00003   0.00004   1.93543
   A103       1.86038   0.00001  -0.00001   0.00005   0.00004   1.86042
   A104       1.80265  -0.00002   0.00007  -0.00006   0.00000   1.80266
   A105       2.08603   0.00003  -0.00001   0.00015   0.00014   2.08617
   A106       1.85298  -0.00001  -0.00004   0.00003  -0.00001   1.85297
   A107       1.96055  -0.00001  -0.00004  -0.00008  -0.00011   1.96043
   A108       1.88760  -0.00000   0.00000  -0.00006  -0.00006   1.88755
   A109       1.86447  -0.00000   0.00002   0.00000   0.00002   1.86449
   A110       1.91329   0.00001   0.00004  -0.00000   0.00004   1.91333
   A111       1.97454   0.00004   0.00006   0.00007   0.00013   1.97467
   A112       1.87571  -0.00001   0.00002   0.00002   0.00004   1.87574
   A113       1.92696  -0.00004  -0.00008  -0.00003  -0.00012   1.92684
   A114       1.88293   0.00001  -0.00001  -0.00002  -0.00004   1.88289
   A115       1.88735  -0.00000  -0.00002  -0.00003  -0.00005   1.88730
   A116       2.03390  -0.00002  -0.00005   0.00003  -0.00003   2.03387
   A117       1.90377   0.00000   0.00005  -0.00006  -0.00001   1.90376
   A118       1.88541   0.00000  -0.00004   0.00003  -0.00001   1.88541
   A119       1.89296   0.00001   0.00004   0.00001   0.00006   1.89302
   A120       1.88903   0.00000  -0.00002  -0.00001  -0.00003   1.88900
   A121       1.85030  -0.00000   0.00001   0.00001   0.00002   1.85032
   A122       2.01965   0.00001  -0.00001   0.00003   0.00003   2.01968
   A123       1.88332  -0.00000  -0.00001   0.00003   0.00001   1.88333
   A124       1.91635  -0.00001   0.00001  -0.00006  -0.00005   1.91630
   A125       1.90756  -0.00001   0.00002  -0.00004  -0.00002   1.90754
   A126       1.88961  -0.00000  -0.00002   0.00003   0.00001   1.88962
   A127       1.83895   0.00000   0.00001   0.00000   0.00001   1.83896
   A128       2.02967  -0.00000   0.00001  -0.00002  -0.00001   2.02966
   A129       1.89149  -0.00000   0.00000  -0.00001  -0.00001   1.89149
   A130       1.90706   0.00000  -0.00000   0.00001   0.00001   1.90707
   A131       1.88661   0.00000  -0.00000   0.00002   0.00002   1.88663
   A132       1.89163  -0.00000  -0.00001   0.00000  -0.00000   1.89163
   A133       1.84907  -0.00000  -0.00000  -0.00000  -0.00001   1.84907
   A134       1.96055  -0.00000   0.00000  -0.00000   0.00000   1.96055
   A135       1.92245   0.00001  -0.00001   0.00005   0.00003   1.92248
   A136       1.88930   0.00000  -0.00002   0.00005   0.00003   1.88933
   A137       1.92804  -0.00001   0.00001  -0.00004  -0.00003   1.92801
   A138       1.88382   0.00000   0.00000  -0.00002  -0.00002   1.88381
   A139       1.87694  -0.00000   0.00001  -0.00003  -0.00002   1.87692
   A140       1.93374   0.00000  -0.00001   0.00003   0.00002   1.93376
   A141       1.95595  -0.00000   0.00001  -0.00003  -0.00002   1.95593
   A142       1.92971  -0.00000  -0.00000  -0.00002  -0.00002   1.92969
   A143       1.87837   0.00000   0.00000   0.00002   0.00002   1.87840
   A144       1.88063   0.00000   0.00000  -0.00000  -0.00000   1.88063
   A145       1.88268   0.00000   0.00000  -0.00000   0.00000   1.88268
   A146       1.93158  -0.00001   0.00000  -0.00003  -0.00003   1.93155
   A147       1.94225  -0.00001   0.00001  -0.00006  -0.00004   1.94221
   A148       1.94066  -0.00000  -0.00001   0.00000  -0.00000   1.94065
   A149       1.88134   0.00001  -0.00001   0.00003   0.00002   1.88137
   A150       1.88121   0.00000  -0.00001   0.00003   0.00002   1.88123
   A151       1.88437   0.00001   0.00000   0.00004   0.00004   1.88441
   A152       1.95457  -0.00000  -0.00001   0.00002   0.00001   1.95458
   A153       1.93388   0.00000  -0.00001   0.00001   0.00001   1.93389
   A154       1.94081  -0.00001  -0.00002  -0.00003  -0.00005   1.94076
   A155       1.88296   0.00000   0.00002  -0.00001   0.00000   1.88297
   A156       1.86823   0.00001   0.00002   0.00002   0.00003   1.86827
   A157       1.88009   0.00000   0.00000  -0.00001  -0.00001   1.88009
    D1       -3.09395   0.00001   0.00004   0.00008   0.00011  -3.09384
    D2       -1.01931  -0.00001  -0.00008  -0.00005  -0.00014  -1.01944
    D3        1.25834   0.00000  -0.00011   0.00011   0.00000   1.25834
    D4       -1.00359   0.00001   0.00000   0.00014   0.00014  -1.00344
    D5        1.07106  -0.00001  -0.00012   0.00001  -0.00011   1.07095
    D6       -2.93448   0.00000  -0.00015   0.00017   0.00003  -2.93445
    D7        1.10147   0.00000   0.00003   0.00007   0.00010   1.10157
    D8       -3.10707  -0.00001  -0.00009  -0.00006  -0.00015  -3.10723
    D9       -0.82943   0.00000  -0.00012   0.00010  -0.00001  -0.82944
   D10        1.07405  -0.00001  -0.00027  -0.00007  -0.00034   1.07371
   D11       -1.22991  -0.00001  -0.00039   0.00010  -0.00029  -1.23020
   D12        3.09958  -0.00000  -0.00034   0.00007  -0.00027   3.09931
   D13       -1.04651  -0.00000  -0.00014  -0.00006  -0.00020  -1.04670
   D14        2.93272   0.00001  -0.00026   0.00011  -0.00015   2.93257
   D15        0.97903   0.00001  -0.00021   0.00008  -0.00013   0.97889
   D16        3.11419  -0.00001  -0.00020  -0.00002  -0.00022   3.11397
   D17        0.81023  -0.00000  -0.00033   0.00016  -0.00017   0.81006
   D18       -1.14346  -0.00000  -0.00028   0.00013  -0.00015  -1.14362
   D19       -1.15560   0.00001   0.00023   0.00015   0.00038  -1.15522
   D20        3.01676   0.00001   0.00020   0.00019   0.00039   3.01715
   D21        0.96826   0.00000   0.00014   0.00022   0.00036   0.96861
   D22        0.98232  -0.00000   0.00021   0.00001   0.00022   0.98254
   D23       -1.12850  -0.00000   0.00018   0.00005   0.00022  -1.12828
   D24        3.10618  -0.00001   0.00011   0.00008   0.00019   3.10637
   D25        2.90919   0.00000   0.00030  -0.00008   0.00022   2.90940
   D26        0.79836  -0.00000   0.00027  -0.00004   0.00022   0.79859
   D27       -1.25014  -0.00000   0.00020  -0.00001   0.00019  -1.24995
   D28        1.38158   0.00001   0.00050  -0.00017   0.00032   1.38191
   D29       -0.81082   0.00002   0.00050  -0.00012   0.00038  -0.81044
   D30       -2.91740   0.00000   0.00051  -0.00025   0.00026  -2.91714
   D31       -0.68748   0.00001   0.00038  -0.00008   0.00030  -0.68718
   D32       -2.87988   0.00002   0.00038  -0.00002   0.00036  -2.87952
   D33        1.29672   0.00000   0.00039  -0.00015   0.00024   1.29696
   D34       -2.67749   0.00001   0.00039   0.00006   0.00045  -2.67704
   D35        1.41330   0.00002   0.00039   0.00011   0.00050   1.41380
   D36       -0.69328   0.00000   0.00041  -0.00002   0.00038  -0.69290
   D37        0.99215   0.00000  -0.00001   0.00009   0.00008   0.99223
   D38        3.11032   0.00000  -0.00001   0.00007   0.00005   3.11037
   D39       -1.09670   0.00000  -0.00000   0.00008   0.00007  -1.09662
   D40       -3.11319   0.00000   0.00016  -0.00006   0.00010  -3.11308
   D41       -0.99502   0.00000   0.00016  -0.00008   0.00008  -0.99494
   D42        1.08115   0.00000   0.00017  -0.00007   0.00010   1.08125
   D43       -1.02688  -0.00000   0.00007  -0.00004   0.00003  -1.02685
   D44        1.09129  -0.00000   0.00006  -0.00006   0.00000   1.09130
   D45       -3.11572  -0.00000   0.00008  -0.00005   0.00002  -3.11570
   D46       -0.60506  -0.00000   0.00016  -0.00016  -0.00000  -0.60506
   D47        1.47763  -0.00000   0.00017  -0.00020  -0.00003   1.47760
   D48       -2.72145   0.00000   0.00015  -0.00016  -0.00001  -2.72146
   D49       -2.87267  -0.00000   0.00004  -0.00005  -0.00001  -2.87269
   D50       -0.78998  -0.00000   0.00005  -0.00009  -0.00004  -0.79003
   D51        1.29412  -0.00000   0.00003  -0.00005  -0.00002   1.29410
   D52        1.33094  -0.00000   0.00012  -0.00010   0.00002   1.33096
   D53       -2.86955  -0.00000   0.00013  -0.00015  -0.00001  -2.86956
   D54       -0.78545   0.00000   0.00012  -0.00010   0.00002  -0.78543
   D55       -3.10602  -0.00001   0.00001  -0.00010  -0.00009  -3.10611
   D56       -0.85438   0.00001   0.00008   0.00003   0.00011  -0.85428
   D57        1.17111  -0.00000   0.00004  -0.00006  -0.00002   1.17109
   D58        1.04796  -0.00001  -0.00001  -0.00004  -0.00004   1.04792
   D59       -2.98359   0.00002   0.00006   0.00010   0.00016  -2.98343
   D60       -0.95810   0.00000   0.00003   0.00000   0.00003  -0.95807
   D61       -1.01583  -0.00001   0.00001  -0.00012  -0.00011  -1.01594
   D62        1.23580   0.00001   0.00007   0.00002   0.00009   1.23590
   D63       -3.02189  -0.00000   0.00004  -0.00007  -0.00003  -3.02193
   D64       -2.85676  -0.00000   0.00007  -0.00012  -0.00006  -2.85681
   D65        1.28489  -0.00000   0.00007  -0.00016  -0.00008   1.28481
   D66       -0.72597  -0.00000   0.00008  -0.00015  -0.00007  -0.72604
   D67       -0.73989   0.00000   0.00007  -0.00015  -0.00009  -0.73998
   D68       -2.88143  -0.00000   0.00007  -0.00018  -0.00011  -2.88154
   D69        1.39089   0.00000   0.00008  -0.00018  -0.00010   1.39079
   D70        1.33659   0.00000   0.00005  -0.00009  -0.00004   1.33655
   D71       -0.80495   0.00000   0.00006  -0.00012  -0.00006  -0.80501
   D72       -2.81581   0.00000   0.00006  -0.00012  -0.00005  -2.81586
   D73        1.33133  -0.00000  -0.00007   0.00021   0.00015   1.33148
   D74       -0.78071   0.00000  -0.00003   0.00016   0.00012  -0.78059
   D75       -2.84452  -0.00000   0.00000   0.00016   0.00016  -2.84435
   D76       -0.90820  -0.00000  -0.00009   0.00010   0.00001  -0.90819
   D77       -3.02025  -0.00000  -0.00006   0.00004  -0.00001  -3.02026
   D78        1.19913  -0.00000  -0.00002   0.00005   0.00003   1.19916
   D79       -2.94754  -0.00000  -0.00011   0.00018   0.00007  -2.94746
   D80        1.22360  -0.00000  -0.00007   0.00013   0.00005   1.22366
   D81       -0.84020  -0.00000  -0.00004   0.00013   0.00009  -0.84011
   D82        0.87106  -0.00001   0.00006  -0.00015  -0.00008   0.87097
   D83        2.99566  -0.00000   0.00008  -0.00012  -0.00004   2.99562
   D84       -1.25982  -0.00000   0.00011  -0.00010   0.00001  -1.25981
   D85        3.11605   0.00000   0.00011  -0.00003   0.00008   3.11613
   D86       -1.04253   0.00000   0.00012  -0.00000   0.00012  -1.04241
   D87        0.98517   0.00001   0.00015   0.00002   0.00017   0.98534
   D88       -1.14003   0.00000   0.00012  -0.00009   0.00003  -1.14001
   D89        0.98457   0.00000   0.00013  -0.00006   0.00007   0.98464
   D90        3.01227   0.00001   0.00016  -0.00004   0.00012   3.01239
   D91       -2.99315   0.00000   0.00031  -0.00009   0.00021  -2.99294
   D92       -0.90621   0.00000   0.00030  -0.00009   0.00021  -0.90600
   D93        1.20233   0.00001   0.00031  -0.00007   0.00024   1.20258
   D94       -0.86916   0.00000   0.00028  -0.00003   0.00025  -0.86891
   D95        1.21779   0.00000   0.00027  -0.00003   0.00025   1.21803
   D96       -2.95686   0.00001   0.00028  -0.00000   0.00028  -2.95658
   D97        1.19315  -0.00001   0.00023  -0.00009   0.00014   1.19330
   D98       -3.00309  -0.00001   0.00022  -0.00008   0.00014  -3.00295
   D99       -0.89455  -0.00000   0.00023  -0.00006   0.00017  -0.89437
   D100       0.24569   0.00000   0.00000  -0.00007  -0.00007   0.24562
   D101      -2.89804   0.00000  -0.00006  -0.00005  -0.00012  -2.89816
   D102      -1.89474  -0.00002  -0.00001  -0.00020  -0.00021  -1.89496
   D103       1.24471  -0.00002  -0.00008  -0.00018  -0.00026   1.24445
   D104       2.31219   0.00000   0.00000  -0.00009  -0.00008   2.31210
   D105      -0.83155   0.00000  -0.00006  -0.00007  -0.00013  -0.83168
   D106       2.94690  -0.00002  -0.00002   0.00003   0.00001   2.94692
   D107      -1.19408  -0.00001  -0.00004   0.00015   0.00011  -1.19398
   D108       0.82635  -0.00001  -0.00002   0.00010   0.00008   0.82643
   D109      -1.20631   0.00001   0.00007   0.00010   0.00017  -1.20614
   D110       0.93589   0.00002   0.00004   0.00022   0.00026   0.93615
   D111       2.95632   0.00001   0.00007   0.00017   0.00023   2.95655
   D112       0.86300  -0.00001   0.00001   0.00003   0.00004   0.86304
   D113       3.00520  -0.00000  -0.00001   0.00016   0.00014   3.00534
   D114      -1.25756  -0.00000   0.00001   0.00010   0.00011  -1.25744
   D115       0.03292  -0.00000   0.00005  -0.00014  -0.00009   0.03284
   D116      -3.11535  -0.00000  -0.00006   0.00010   0.00003  -3.11531
   D117      -3.10645  -0.00000   0.00012  -0.00016  -0.00004  -3.10648
   D118       0.02847   0.00000   0.00000   0.00008   0.00008   0.02855
   D119       0.90735  -0.00000   0.00012  -0.00006   0.00006   0.90741
   D120       3.04992  -0.00000   0.00012  -0.00007   0.00005   3.04996
   D121      -1.17978   0.00001   0.00013   0.00001   0.00014  -1.17964
   D122      -2.23633  -0.00000   0.00005  -0.00004   0.00001  -2.23631
   D123      -0.09376  -0.00001   0.00006  -0.00005   0.00000  -0.09376
   D124       1.95973   0.00000   0.00007   0.00003   0.00010   1.95982
   D125       0.22530  -0.00000  -0.00009   0.00025   0.00016   0.22546
   D126       2.37017   0.00001  -0.00010   0.00033   0.00023   2.37039
   D127      -1.90272   0.00000  -0.00010   0.00030   0.00020  -1.90252
   D128      -2.90976  -0.00001   0.00003   0.00002   0.00004  -2.90972
   D129      -0.76490   0.00000   0.00001   0.00010   0.00011  -0.76479
   D130       1.24540  -0.00000   0.00001   0.00007   0.00009   1.24549
   D131      -3.01851  -0.00001  -0.00005   0.00003  -0.00001  -3.01853
   D132      -0.95064   0.00001  -0.00010   0.00018   0.00008  -0.95056
   D133       1.16260   0.00000  -0.00007   0.00019   0.00012   1.16271
   D134       1.13076  -0.00001  -0.00003  -0.00001  -0.00004   1.13072
   D135      -3.08455   0.00000  -0.00008   0.00014   0.00005  -3.08450
   D136      -0.97132   0.00000  -0.00006   0.00014   0.00009  -0.97123
   D137      -0.89271  -0.00001  -0.00007   0.00001  -0.00006  -0.89277
   D138       1.17516   0.00000  -0.00012   0.00015   0.00004   1.17520
   D139      -2.99479   0.00000  -0.00009   0.00016   0.00007  -2.99472
   D140      -1.06967  -0.00001   0.00007  -0.00043  -0.00036  -1.07003
   D141       3.10453  -0.00001   0.00013  -0.00056  -0.00044   3.10409
   D142       1.04037  -0.00001   0.00012  -0.00057  -0.00046   1.03992
   D143       0.98499  -0.00000   0.00007  -0.00019  -0.00012   0.98487
   D144       3.10763   0.00000   0.00007  -0.00012  -0.00006   3.10757
   D145      -1.14932   0.00000   0.00008  -0.00013  -0.00005  -1.14937
   D146       3.10231  -0.00000   0.00004  -0.00013  -0.00009   3.10221
   D147      -1.05824   0.00000   0.00004  -0.00007  -0.00003  -1.05827
   D148       0.96800   0.00000   0.00005  -0.00007  -0.00002   0.96798
   D149      -1.12702  -0.00000   0.00003  -0.00016  -0.00013  -1.12715
   D150       0.99562   0.00000   0.00003  -0.00010  -0.00007   0.99555
   D151       3.02186   0.00000   0.00005  -0.00011  -0.00006   3.02180
   D152      -0.97714   0.00001  -0.00003   0.00010   0.00007  -0.97707
   D153      -3.12135   0.00001  -0.00002   0.00005   0.00003  -3.12132
   D154       1.13675  -0.00000  -0.00000  -0.00004  -0.00004   1.13671
   D155      -3.09277   0.00000  -0.00003   0.00003   0.00000  -3.09276
   D156       1.04621   0.00000  -0.00002  -0.00002  -0.00003   1.04618
   D157      -0.97887  -0.00000  -0.00000  -0.00010  -0.00010  -0.97898
   D158       1.12897  -0.00000  -0.00006   0.00003  -0.00003   1.12895
   D159      -1.01523  -0.00000  -0.00004  -0.00002  -0.00006  -1.01530
   D160      -3.04032  -0.00001  -0.00003  -0.00010  -0.00013  -3.04045
   D161      -0.95616  -0.00001  -0.00022   0.00008  -0.00014  -0.95630
   D162       1.14487  -0.00000  -0.00020   0.00005  -0.00015   1.14472
   D163      -3.11205  -0.00000  -0.00016   0.00003  -0.00013  -3.11217
   D164      -3.09180  -0.00000  -0.00027   0.00011  -0.00016  -3.09195
   D165      -0.99076  -0.00000  -0.00025   0.00008  -0.00017  -0.99093
   D166       1.03550   0.00000  -0.00021   0.00006  -0.00014   1.03536
   D167       1.18665  -0.00001  -0.00026   0.00004  -0.00022   1.18643
   D168      -2.99550  -0.00000  -0.00024   0.00001  -0.00023  -2.99573
   D169      -0.96924  -0.00000  -0.00020  -0.00001  -0.00021  -0.96944
   D170       0.15900   0.00000   0.00008   0.00010   0.00018   0.15918
   D171       2.25796  -0.00000   0.00005   0.00005   0.00011   2.25806
   D172      -1.95931  -0.00000   0.00002   0.00009   0.00011  -1.95920
   D173      -1.91771   0.00001   0.00005   0.00019   0.00024  -1.91747
   D174       0.18124   0.00000   0.00003   0.00015   0.00017   0.18142
   D175       2.24716   0.00000  -0.00000   0.00018   0.00018   2.24734
   D176       2.27870   0.00000   0.00007   0.00011   0.00018   2.27888
   D177      -1.90553  -0.00000   0.00005   0.00007   0.00011  -1.90542
   D178       0.16039  -0.00000   0.00002   0.00010   0.00012   0.16050
   D179       0.33681  -0.00001  -0.00028  -0.00002  -0.00030   0.33651
   D180       2.60773   0.00002  -0.00027   0.00007  -0.00020   2.60754
   D181      -1.62216   0.00001  -0.00026  -0.00001  -0.00027  -1.62243
   D182      -1.76985  -0.00001  -0.00026   0.00000  -0.00026  -1.77011
   D183       0.50107   0.00001  -0.00025   0.00009  -0.00015   0.50091
   D184       2.55436   0.00000  -0.00024   0.00001  -0.00023   2.55414
   D185       2.45826  -0.00001  -0.00023  -0.00005  -0.00028   2.45798
   D186      -1.55400   0.00001  -0.00022   0.00004  -0.00018  -1.55418
   D187       0.49929   0.00000  -0.00021  -0.00004  -0.00025   0.49904
   D188       3.13684   0.00001   0.00034  -0.00008   0.00026   3.13711
   D189      -0.98733  -0.00002   0.00030  -0.00007   0.00023  -0.98711
   D190       1.09479  -0.00000   0.00032  -0.00006   0.00026   1.09505
   D191       1.02146   0.00001   0.00029  -0.00004   0.00025   1.02171
   D192      -3.10272  -0.00001   0.00025  -0.00004   0.00021  -3.10251
   D193      -1.02060   0.00000   0.00027  -0.00002   0.00025  -1.02035
   D194      -1.04552   0.00002   0.00029   0.00007   0.00036  -1.04516
   D195       1.11348  -0.00000   0.00026   0.00008   0.00033   1.11382
   D196      -3.08758   0.00001   0.00028   0.00009   0.00037  -3.08721
   D197      -3.06602   0.00000  -0.00046  -0.00017  -0.00063  -3.06665
   D198      -0.91627   0.00001  -0.00040  -0.00018  -0.00058  -0.91685
   D199       1.08745   0.00001  -0.00037  -0.00019  -0.00056   1.08689
   D200       1.03050  -0.00002  -0.00051  -0.00023  -0.00074   1.02977
   D201      -3.10293  -0.00002  -0.00044  -0.00024  -0.00068  -3.10362
   D202      -1.09922  -0.00001  -0.00042  -0.00025  -0.00067  -1.09988
   D203      -1.02851  -0.00000  -0.00043  -0.00016  -0.00059  -1.02909
   D204       1.12124   0.00001  -0.00036  -0.00017  -0.00053   1.12071
   D205       3.12496   0.00001  -0.00034  -0.00018  -0.00052   3.12444
   D206       1.11400   0.00000   0.00022   0.00019   0.00041   1.11441
   D207      -0.98934   0.00000   0.00020   0.00018   0.00039  -0.98896
   D208      -3.07984   0.00001   0.00022   0.00020   0.00042  -3.07942
   D209      -3.01771   0.00001   0.00025   0.00021   0.00046  -3.01724
   D210       1.16214   0.00001   0.00024   0.00020   0.00044   1.16258
   D211      -0.92836   0.00001   0.00025   0.00022   0.00048  -0.92788
   D212      -0.96141  -0.00000   0.00018   0.00014   0.00032  -0.96109
   D213      -3.06475  -0.00001   0.00016   0.00014   0.00030  -3.06445
   D214       1.12794  -0.00000   0.00018   0.00016   0.00033   1.12827
   D215       1.01461   0.00001   0.00027   0.00017   0.00044   1.01505
   D216      -3.12609   0.00001   0.00028   0.00016   0.00044  -3.12565
   D217      -1.13037   0.00000   0.00029   0.00015   0.00044  -1.12993
   D218      -1.14073   0.00000   0.00020   0.00022   0.00042  -1.14031
   D219       1.00176   0.00000   0.00021   0.00022   0.00042   1.00218
   D220       2.99748   0.00000   0.00022   0.00020   0.00042   2.99790
   D221      -3.14076  -0.00000   0.00017   0.00021   0.00038  -3.14037
   D222      -0.99827  -0.00000   0.00018   0.00021   0.00039  -0.99788
   D223       0.99745  -0.00000   0.00019   0.00019   0.00038   0.99783
   D224       1.03642   0.00000   0.00005   0.00023   0.00028   1.03670
   D225      -3.11838   0.00000   0.00005   0.00024   0.00029  -3.11809
   D226      -1.11113   0.00000   0.00005   0.00023   0.00028  -1.11084
   D227      -1.09321   0.00000   0.00006   0.00020   0.00026  -1.09295
   D228       1.03518   0.00000   0.00006   0.00021   0.00027   1.03545
   D229       3.04243   0.00000   0.00006   0.00021   0.00026   3.04270
   D230      -3.08774  -0.00000   0.00004   0.00020   0.00025  -3.08750
   D231      -0.95936   0.00000   0.00005   0.00021   0.00025  -0.95910
   D232       1.04790  -0.00000   0.00004   0.00020   0.00025   1.04814
   D233       1.05929   0.00000  -0.00005   0.00007   0.00002   1.05931
   D234      -3.06666  -0.00000  -0.00004   0.00004  -0.00000  -3.06666
   D235      -1.01899  -0.00000  -0.00005   0.00006   0.00002  -1.01897
   D236      -1.07167   0.00000  -0.00006   0.00008   0.00002  -1.07165
   D237       1.08557  -0.00000  -0.00005   0.00005   0.00000   1.08557
   D238       3.13324   0.00000  -0.00005   0.00007   0.00002   3.13326
   D239      -3.06834   0.00000  -0.00005   0.00007   0.00002  -3.06831
   D240      -0.91110  -0.00000  -0.00004   0.00005   0.00000  -0.91109
   D241       1.13657   0.00000  -0.00004   0.00007   0.00002   1.13660
   D242       3.11523  -0.00000   0.00007  -0.00013  -0.00006   3.11517
   D243      -1.06963   0.00000   0.00007  -0.00010  -0.00003  -1.06966
   D244       1.03140   0.00000   0.00008  -0.00013  -0.00006   1.03135
   D245       0.96112  -0.00000   0.00007  -0.00015  -0.00008   0.96104
   D246       3.05945  -0.00000   0.00007  -0.00012  -0.00005   3.05940
   D247      -1.12271  -0.00000   0.00008  -0.00016  -0.00008  -1.12279
   D248      -1.08648   0.00000   0.00005  -0.00008  -0.00003  -1.08651
   D249       1.01185   0.00000   0.00005  -0.00005  -0.00000   1.01185
   D250       3.11288   0.00000   0.00006  -0.00009  -0.00003   3.11285
   D251      -1.09079   0.00000  -0.00002   0.00007   0.00005  -1.09073
   D252       1.00070  -0.00000  -0.00001   0.00005   0.00003   1.00074
   D253       3.10212   0.00000  -0.00001   0.00006   0.00005   3.10218
   D254       1.08524   0.00000  -0.00001   0.00007   0.00006   1.08529
   D255      -3.10646  -0.00000  -0.00001   0.00004   0.00003  -3.10642
   D256      -1.00504   0.00000  -0.00000   0.00006   0.00005  -1.00498
   D257       3.13707  -0.00000   0.00000   0.00000   0.00001   3.13708
   D258      -1.05462  -0.00000   0.00001  -0.00002  -0.00001  -1.05463
   D259       1.04680  -0.00000   0.00001  -0.00001   0.00001   1.04681
         Item               Value     Threshold  Converged?
 Maximum Force            0.000048     0.000450     YES
 RMS     Force            0.000008     0.000300     YES
 Maximum Displacement     0.004880     0.001800     NO 
 RMS     Displacement     0.000764     0.001200     YES
 Predicted change in Energy=-1.251097D-07
 Lowest energy point so far.  Saving SCF results.
 GradGradGradGradGradGradGradGradGradGradGradGradGradGradGradGradGradGrad

 Leave Link  103 at Mon Jul 28 19:14:24 2025, MaxMem=  1073741824 cpu:               1.3 elap:               0.2
 (Enter /app/gaussian/g16/l202.exe)
 Stoichiometry    C27H46O
 Framework group  C1[X(C27H46O)]
 Deg. of freedom   216
 Full point group                 C1      NOp   1
 RotChk:  IX=0 Diff= 1.50D-04
 Largest Abelian subgroup         C1      NOp   1
 Largest concise Abelian subgroup C1      NOp   1
                         Standard orientation:                         
 ---------------------------------------------------------------------
 Center     Atomic      Atomic             Coordinates (Angstroms)
 Number     Number       Type             X           Y           Z
 ---------------------------------------------------------------------
      1          6           0       -0.994372   -0.308105    1.459480
      2          6           0       -0.734240   -0.405268   -0.064957
      3          6           0        0.100574    0.799430   -0.605151
      4          6           0        1.509402    0.942227   -0.004580
      5          6           0        2.313548   -0.370732   -0.237426
      6          6           0        3.753782   -0.318127    0.397212
      7          6           0        3.707256   -0.506138    1.942408
      8          6           0        4.422057    1.032805    0.079488
      9          6           0        3.743230    2.093844   -0.393663
     10          6           0        2.258367    2.132824   -0.639057
     11          6           0        5.919765    1.123703    0.331164
     12          6           0        6.689991   -0.019279   -0.348699
     13          8           0        8.108076   -0.014808    0.038413
     14          6           0        6.126362   -1.371258    0.071191
     15          6           0        4.620314   -1.456123   -0.242327
     16          6           0        1.505353   -1.627502    0.178448
     17          6           0        0.072642   -1.681174   -0.406373
     18          6           0       -0.864450    1.998234   -0.525491
     19          6           0       -2.257155    1.375396   -0.844150
     20          6           0       -2.076237   -0.187575   -0.860993
     21          6           0       -3.364619   -0.936767   -0.412105
     22          6           0       -4.546579   -0.550919   -1.348060
     23          6           0       -5.934174   -1.127898   -0.982371
     24          6           0       -6.460350   -0.767812    0.425057
     25          6           0       -6.629916    0.741723    0.728710
     26          6           0       -7.634794    1.421659   -0.223268
     27          6           0       -7.056818    0.943746    2.197671
     28          6           0       -3.190950   -2.469306   -0.368938
     29          1           0       -1.539403   -1.190958    1.813666
     30          1           0       -0.065283   -0.246200    2.033541
     31          1           0       -1.594586    0.572469    1.712863
     32          1           0        0.251545    0.587461   -1.680360
     33          1           0        1.426972    1.129152    1.076953
     34          1           0        2.468863   -0.434349   -1.329589
     35          1           0        4.685517   -0.320473    2.395730
     36          1           0        2.996481    0.189863    2.401036
     37          1           0        3.413259   -1.527197    2.209413
     38          1           0        4.292616    3.009470   -0.617963
     39          1           0        1.847515    3.078923   -0.257959
     40          1           0        2.065475    2.144633   -1.726433
     41          1           0        6.291654    2.096317   -0.019454
     42          1           0        6.140862    1.066588    1.407346
     43          1           0        6.620446    0.088350   -1.442616
     44          1           0        8.544844    0.817497   -0.233812
     45          1           0        6.666299   -2.170192   -0.451048
     46          1           0        6.316974   -1.509332    1.143319
     47          1           0        4.240086   -2.429836    0.089226
     48          1           0        4.483030   -1.417372   -1.333552
     49          1           0        2.042620   -2.530761   -0.137935
     50          1           0        1.437661   -1.680142    1.271568
     51          1           0        0.125321   -1.780483   -1.501856
     52          1           0       -0.421331   -2.584649   -0.031772
     53          1           0       -0.848997    2.442212    0.479187
     54          1           0       -0.598742    2.794481   -1.229906
     55          1           0       -2.996327    1.662248   -0.084629
     56          1           0       -2.640704    1.734660   -1.805397
     57          1           0       -1.871183   -0.498847   -1.900225
     58          1           0       -3.611077   -0.591057    0.603799
     59          1           0       -4.625860    0.541888   -1.393397
     60          1           0       -4.294484   -0.880116   -2.369189
     61          1           0       -6.653647   -0.782759   -1.738388
     62          1           0       -5.917948   -2.222406   -1.074285
     63          1           0       -7.437442   -1.257197    0.566289
     64          1           0       -5.792612   -1.201520    1.184177
     65          1           0       -5.652596    1.232018    0.596659
     66          1           0       -7.755691    2.482305    0.030758
     67          1           0       -7.313433    1.365576   -1.269530
     68          1           0       -8.621887    0.944331   -0.147607
     69          1           0       -8.033150    0.475940    2.385688
     70          1           0       -6.331495    0.495380    2.888495
     71          1           0       -7.143232    2.009817    2.442576
     72          1           0       -2.451197   -2.776595    0.374836
     73          1           0       -2.866530   -2.852932   -1.346011
     74          1           0       -4.131747   -2.967396   -0.110848
 ---------------------------------------------------------------------
 Rotational constants (GHZ):           0.5329960           0.0601993           0.0579324
 Leave Link  202 at Mon Jul 28 19:14:24 2025, MaxMem=  1073741824 cpu:               0.1 elap:               0.0
 (Enter /app/gaussian/g16/l301.exe)
 Standard basis: 6-31+G (6D, 7F)
 Ernie: Thresh=  0.10000D-02 Tol=  0.10000D-05 Strict=F.
 There are   456 symmetry adapted cartesian basis functions of A   symmetry.
 There are   456 symmetry adapted basis functions of A   symmetry.
   456 basis functions,   912 primitive gaussians,   456 cartesian basis functions
   108 alpha electrons      108 beta electrons
       nuclear repulsion energy      2810.3795284822 Hartrees.
 IExCor=  402 DFT=T Ex+Corr=B3LYP ExCW=0 ScaHFX=  0.200000
 ScaDFX=  0.800000  0.720000  1.000000  0.810000 ScalE2=  1.000000  1.000000
 IRadAn=      5 IRanWt=     -1 IRanGd=            0 ICorTp=0 IEmpDi=  4
 NAtoms=   74 NActive=   74 NUniq=   74 SFac= 1.00D+00 NAtFMM=   60 NAOKFM=T Big=T
 Integral buffers will be    131072 words long.
 Raffenetti 2 integral format.
 Two-electron integral symmetry is turned on.
 Leave Link  301 at Mon Jul 28 19:14:24 2025, MaxMem=  1073741824 cpu:               0.4 elap:               0.1
 (Enter /app/gaussian/g16/l302.exe)
 NPDir=0 NMtPBC=     1 NCelOv=     1 NCel=       1 NClECP=     1 NCelD=      1
         NCelK=      1 NCelE2=     1 NClLst=     1 CellRange=     0.0.
 One-electron integrals computed using PRISM.
 One-electron integral symmetry used in STVInt
 NBasis=   456 RedAO= T EigKep=  1.02D-06  NBF=   456
 NBsUse=   455 1.00D-06 EigRej=  5.94D-07 NBFU=   455
 Precomputing XC quadrature grid using
 IXCGrd= 4 IRadAn=           5 IRanWt=          -1 IRanGd=           0 AccXCQ= 0.00D+00.
 Generated NRdTot=       0 NPtTot=           0 NUsed=           0 NTot=          32
 NSgBfM=   441   440   440   441   441 MxSgAt=    74 MxSgA2=    74.
 Leave Link  302 at Mon Jul 28 19:14:25 2025, MaxMem=  1073741824 cpu:              11.7 elap:               1.5
 (Enter /app/gaussian/g16/l303.exe)
 DipDrv:  MaxL=1.
 Leave Link  303 at Mon Jul 28 19:14:25 2025, MaxMem=  1073741824 cpu:               0.5 elap:               0.1
 (Enter /app/gaussian/g16/l401.exe)
 Initial guess from the checkpoint file:  "/work/scr/Gau-255599.chk"
 B after Tr=     0.000000   -0.000000   -0.000000
         Rot=    1.000000   -0.000053    0.000006   -0.000007 Ang=  -0.01 deg.
 Guess basis will be translated and rotated to current coordinates.
 JPrj=2 DoOrth=T DoCkMO=T.
 Leave Link  401 at Mon Jul 28 19:14:26 2025, MaxMem=  1073741824 cpu:               3.4 elap:               0.4
 (Enter /app/gaussian/g16/l502.exe)
 Integral symmetry usage will be decided dynamically.
 Closed shell SCF:
 Using DIIS extrapolation, IDIIS=  1040.
 NGot=  1073741824 LenX=  1073314746 LenY=  1073106354
 Requested convergence on RMS density matrix=1.00D-08 within 128 cycles.
 Requested convergence on MAX density matrix=1.00D-06.
 Requested convergence on             energy=1.00D-06.
 No special actions if energy rises.
 Fock matrices will be formed incrementally for  20 cycles.

 Cycle   1  Pass 1  IDiag  1:
 FoFJK:  IHMeth= 1 ICntrl=       0 DoSepK=F KAlg= 0 I1Cent=           0 FoldK=F
 IRaf= 990000000 NMat=       1 IRICut=       1 DoRegI=T DoRafI=F ISym2E= 0 IDoP0=0 IntGTp=1.
 FoFCou: FMM=T IPFlag=           0 FMFlag=      100000 FMFlg1=        2001
         NFxFlg=           0 DoJE=F BraDBF=F KetDBF=F FulRan=T
         wScrn=  0.000000 ICntrl=         0 IOpCl=  0 I1Cent=           0 NGrid=           0
         NMat0=    1 NMatS0=      1 NMatT0=    0 NMatD0=    1 NMtDS0=    0 NMtDT0=    0
 Symmetry not used in FoFCou.
 FMM levels:  10  Number of levels for PrismC:   9
 E= -1131.55725340065    
 DIIS: error= 6.11D-05 at cycle   1 NSaved=   1.
 NSaved= 1 IEnMin= 1 EnMin= -1131.55725340065     IErMin= 1 ErrMin= 6.11D-05
 ErrMax= 6.11D-05  0.00D+00 EMaxC= 1.00D-01 BMatC= 2.41D-06 BMatP= 2.41D-06
 IDIUse=1 WtCom= 1.00D+00 WtEn= 0.00D+00
 Coeff-Com:  0.100D+01
 Coeff:      0.100D+01
 Gap=     0.521 Goal=   None    Shift=    0.000
 RMSDP=7.59D-05 MaxDP=4.77D-03              OVMax= 2.08D-04

 Cycle   2  Pass 1  IDiag  1:
 RMSU=  7.29D-05    CP:  1.00D+00
 E= -1131.55725546964     Delta-E=       -0.000002068986 Rises=F Damp=F
 DIIS: error= 3.43D-06 at cycle   2 NSaved=   2.
 NSaved= 2 IEnMin= 2 EnMin= -1131.55725546964     IErMin= 2 ErrMin= 3.43D-06
 ErrMax= 3.43D-06  0.00D+00 EMaxC= 1.00D-01 BMatC= 1.31D-08 BMatP= 2.41D-06
 IDIUse=1 WtCom= 1.00D+00 WtEn= 0.00D+00
 Coeff-Com: -0.121D-01 0.101D+01
 Coeff:     -0.121D-01 0.101D+01
 Gap=     0.231 Goal=   None    Shift=    0.000
 RMSDP=1.46D-05 MaxDP=1.30D-03 DE=-2.07D-06 OVMax= 5.34D-05

 Cycle   3  Pass 1  IDiag  1:
 RMSU=  1.32D-05    CP:  1.00D+00  9.56D-01
 E= -1131.55725547154     Delta-E=       -0.000000001900 Rises=F Damp=F
 DIIS: error= 4.62D-06 at cycle   3 NSaved=   3.
 NSaved= 3 IEnMin= 3 EnMin= -1131.55725547154     IErMin= 2 ErrMin= 3.43D-06
 ErrMax= 4.62D-06  0.00D+00 EMaxC= 1.00D-01 BMatC= 1.78D-08 BMatP= 1.31D-08
 IDIUse=1 WtCom= 1.00D+00 WtEn= 0.00D+00
 Coeff-Com: -0.112D-01 0.555D+00 0.456D+00
 Coeff:     -0.112D-01 0.555D+00 0.456D+00
 Gap=     0.231 Goal=   None    Shift=    0.000
 RMSDP=7.95D-06 MaxDP=6.92D-04 DE=-1.90D-09 OVMax= 4.84D-05

 Cycle   4  Pass 1  IDiag  1:
 RMSU=  3.66D-06    CP:  1.00D+00  9.88D-01  5.54D-01
 E= -1131.55725548981     Delta-E=       -0.000000018277 Rises=F Damp=F
 DIIS: error= 1.87D-06 at cycle   4 NSaved=   4.
 NSaved= 4 IEnMin= 4 EnMin= -1131.55725548981     IErMin= 4 ErrMin= 1.87D-06
 ErrMax= 1.87D-06  0.00D+00 EMaxC= 1.00D-01 BMatC= 7.34D-10 BMatP= 1.31D-08
 IDIUse=1 WtCom= 1.00D+00 WtEn= 0.00D+00
 Coeff-Com: -0.372D-02 0.148D+00 0.199D+00 0.658D+00
 Coeff:     -0.372D-02 0.148D+00 0.199D+00 0.658D+00
 Gap=     0.231 Goal=   None    Shift=    0.000
 RMSDP=1.52D-06 MaxDP=7.60D-05 DE=-1.83D-08 OVMax= 2.28D-05

 Cycle   5  Pass 1  IDiag  1:
 RMSU=  1.19D-06    CP:  1.00D+00  9.92D-01  5.64D-01  7.67D-01
 E= -1131.55725549067     Delta-E=       -0.000000000854 Rises=F Damp=F
 DIIS: error= 1.26D-06 at cycle   5 NSaved=   5.
 NSaved= 5 IEnMin= 5 EnMin= -1131.55725549067     IErMin= 5 ErrMin= 1.26D-06
 ErrMax= 1.26D-06  0.00D+00 EMaxC= 1.00D-01 BMatC= 3.46D-10 BMatP= 7.34D-10
 IDIUse=1 WtCom= 1.00D+00 WtEn= 0.00D+00
 Coeff-Com: -0.506D-03-0.672D-03 0.521D-01 0.446D+00 0.503D+00
 Coeff:     -0.506D-03-0.672D-03 0.521D-01 0.446D+00 0.503D+00
 Gap=     0.231 Goal=   None    Shift=    0.000
 RMSDP=6.42D-07 MaxDP=5.04D-05 DE=-8.54D-10 OVMax= 9.79D-06

 Cycle   6  Pass 1  IDiag  1:
 RMSU=  4.66D-07    CP:  1.00D+00  9.92D-01  5.77D-01  7.68D-01  7.20D-01
 E= -1131.55725549081     Delta-E=       -0.000000000140 Rises=F Damp=F
 DIIS: error= 9.46D-08 at cycle   6 NSaved=   6.
 NSaved= 6 IEnMin= 6 EnMin= -1131.55725549081     IErMin= 6 ErrMin= 9.46D-08
 ErrMax= 9.46D-08  0.00D+00 EMaxC= 1.00D-01 BMatC= 7.45D-12 BMatP= 3.46D-10
 IDIUse=1 WtCom= 1.00D+00 WtEn= 0.00D+00
 Coeff-Com:  0.345D-05-0.956D-02 0.108D-01 0.156D+00 0.223D+00 0.619D+00
 Coeff:      0.345D-05-0.956D-02 0.108D-01 0.156D+00 0.223D+00 0.619D+00
 Gap=     0.231 Goal=   None    Shift=    0.000
 RMSDP=2.66D-07 MaxDP=1.81D-05 DE=-1.40D-10 OVMax= 7.25D-07

 Cycle   7  Pass 1  IDiag  1:
 RMSU=  1.24D-07    CP:  1.00D+00  9.91D-01  5.78D-01  8.03D-01  6.70D-01
                    CP:  6.27D-01
 E= -1131.55725549089     Delta-E=       -0.000000000081 Rises=F Damp=F
 DIIS: error= 3.69D-08 at cycle   7 NSaved=   7.
 NSaved= 7 IEnMin= 7 EnMin= -1131.55725549089     IErMin= 7 ErrMin= 3.69D-08
 ErrMax= 3.69D-08  0.00D+00 EMaxC= 1.00D-01 BMatC= 9.80D-13 BMatP= 7.45D-12
 IDIUse=1 WtCom= 1.00D+00 WtEn= 0.00D+00
 Coeff-Com:  0.322D-04-0.529D-02 0.284D-02 0.592D-01 0.924D-01 0.346D+00
 Coeff-Com:  0.505D+00
 Coeff:      0.322D-04-0.529D-02 0.284D-02 0.592D-01 0.924D-01 0.346D+00
 Coeff:      0.505D+00
 Gap=     0.231 Goal=   None    Shift=    0.000
 RMSDP=5.76D-08 MaxDP=3.43D-06 DE=-8.14D-11 OVMax= 1.32D-07

 Cycle   8  Pass 1  IDiag  1:
 RMSU=  3.25D-08    CP:  1.00D+00  9.91D-01  5.80D-01  8.04D-01  6.72D-01
                    CP:  6.57D-01  6.97D-01
 E= -1131.55725549080     Delta-E=        0.000000000090 Rises=F Damp=F
 DIIS: error= 8.68D-09 at cycle   8 NSaved=   8.
 NSaved= 8 IEnMin= 7 EnMin= -1131.55725549089     IErMin= 8 ErrMin= 8.68D-09
 ErrMax= 8.68D-09  0.00D+00 EMaxC= 1.00D-01 BMatC= 3.43D-14 BMatP= 9.80D-13
 IDIUse=1 WtCom= 1.00D+00 WtEn= 0.00D+00
 Coeff-Com:  0.138D-04-0.168D-02 0.510D-03 0.153D-01 0.253D-01 0.111D+00
 Coeff-Com:  0.222D+00 0.627D+00
 Coeff:      0.138D-04-0.168D-02 0.510D-03 0.153D-01 0.253D-01 0.111D+00
 Coeff:      0.222D+00 0.627D+00
 Gap=     0.231 Goal=   None    Shift=    0.000
 RMSDP=1.49D-08 MaxDP=1.27D-06 DE= 8.96D-11 OVMax= 3.69D-08

 Cycle   9  Pass 1  IDiag  1:
 RMSU=  8.58D-09    CP:  1.00D+00  9.91D-01  5.80D-01  8.03D-01  6.76D-01
                    CP:  6.66D-01  6.56D-01  8.09D-01
 E= -1131.55725549087     Delta-E=       -0.000000000074 Rises=F Damp=F
 DIIS: error= 4.00D-09 at cycle   9 NSaved=   9.
 NSaved= 9 IEnMin= 7 EnMin= -1131.55725549089     IErMin= 9 ErrMin= 4.00D-09
 ErrMax= 4.00D-09  0.00D+00 EMaxC= 1.00D-01 BMatC= 6.93D-15 BMatP= 3.43D-14
 IDIUse=1 WtCom= 1.00D+00 WtEn= 0.00D+00
 Coeff-Com:  0.350D-05-0.268D-03-0.735D-04 0.107D-02 0.240D-02 0.185D-01
 Coeff-Com:  0.624D-01 0.350D+00 0.566D+00
 Coeff:      0.350D-05-0.268D-03-0.735D-04 0.107D-02 0.240D-02 0.185D-01
 Coeff:      0.624D-01 0.350D+00 0.566D+00
 Gap=     0.231 Goal=   None    Shift=    0.000
 RMSDP=4.46D-09 MaxDP=3.98D-07 DE=-7.41D-11 OVMax= 1.45D-08

 SCF Done:  E(RB3LYP) =  -1131.55725549     A.U. after    9 cycles
            NFock=  9  Conv=0.45D-08     -V/T= 2.0059
 KE= 1.124917138865D+03 PE=-8.242517783760D+03 EE= 3.175663860921D+03
 Leave Link  502 at Mon Jul 28 19:17:21 2025, MaxMem=  1073741824 cpu:            1394.6 elap:             174.9
 (Enter /app/gaussian/g16/l701.exe)
 ... and contract with generalized density number  0.
 Compute integral first derivatives.
 Leave Link  701 at Mon Jul 28 19:17:21 2025, MaxMem=  1073741824 cpu:               1.9 elap:               0.3
 (Enter /app/gaussian/g16/l702.exe)
 L702 exits ... SP integral derivatives will be done elsewhere.
 Leave Link  702 at Mon Jul 28 19:17:21 2025, MaxMem=  1073741824 cpu:               0.1 elap:               0.0
 (Enter /app/gaussian/g16/l703.exe)
 Integral derivatives from FoFJK, PRISM(SPDF).
 Compute integral first derivatives, UseDBF=F ICtDFT=           0.
 Calling FoFJK, ICntrl=      2127 FMM=T ISym2X=0 I1Cent= 0 IOpClX= 0 NMat=1 NMatS=1 NMatT=0.
 FoFJK:  IHMeth= 1 ICntrl=    2127 DoSepK=F KAlg= 0 I1Cent=           0 FoldK=F
 IRaf=         0 NMat=       1 IRICut=       1 DoRegI=T DoRafI=F ISym2E= 0 IDoP0=0 IntGTp=1.
 FoFCou: FMM=T IPFlag=           0 FMFlag=      100000 FMFlg1=        2001
         NFxFlg=           0 DoJE=F BraDBF=F KetDBF=F FulRan=T
         wScrn=  0.000000 ICntrl=      2127 IOpCl=  0 I1Cent=           0 NGrid=           0
         NMat0=    1 NMatS0=      1 NMatT0=    0 NMatD0=    1 NMtDS0=    0 NMtDT0=    0
 Symmetry not used in FoFCou.
 FMM levels:  10  Number of levels for PrismC:   9
 Leave Link  703 at Mon Jul 28 19:18:12 2025, MaxMem=  1073741824 cpu:             405.8 elap:              50.9
 (Enter /app/gaussian/g16/l716.exe)
 Dipole        =-5.86333715D-01 4.50970150D-01-3.15678239D-01
 ***** Axes restored to original set *****
 -------------------------------------------------------------------
 Center     Atomic                   Forces (Hartrees/Bohr)
 Number     Number              X              Y              Z
 -------------------------------------------------------------------
      1        6           0.000004143    0.000004190    0.000003993
      2        6          -0.000000951   -0.000000683   -0.000006497
      3        6           0.000005715   -0.000005992    0.000005983
      4        6          -0.000008377    0.000000457   -0.000001633
      5        6           0.000007323   -0.000005396   -0.000002397
      6        6           0.000000923    0.000012211    0.000011767
      7        6           0.000002020   -0.000006249    0.000005371
      8        6           0.000002352   -0.000002470   -0.000004165
      9        6          -0.000000476   -0.000002270   -0.000004460
     10        6           0.000003153   -0.000005566    0.000006123
     11        6          -0.000003354   -0.000004984    0.000001632
     12        6          -0.000000096    0.000000985    0.000002505
     13        8           0.000003933   -0.000012546    0.000005280
     14        6          -0.000011411    0.000008247   -0.000001834
     15        6           0.000001003    0.000004030    0.000002904
     16        6          -0.000001364    0.000000353    0.000001610
     17        6           0.000005932    0.000005463    0.000001786
     18        6          -0.000002536   -0.000001985   -0.000012394
     19        6           0.000002699   -0.000007517   -0.000002150
     20        6          -0.000003082    0.000001876    0.000006908
     21        6          -0.000000388    0.000007169    0.000002683
     22        6           0.000002981   -0.000005684   -0.000007104
     23        6           0.000003023    0.000006600   -0.000004771
     24        6          -0.000000480    0.000002240    0.000005332
     25        6           0.000002115   -0.000003673    0.000003271
     26        6          -0.000001727   -0.000003528   -0.000006197
     27        6          -0.000002499   -0.000005312    0.000004606
     28        6          -0.000000902   -0.000001091    0.000004408
     29        1           0.000001677   -0.000000124    0.000001723
     30        1          -0.000001841    0.000002953   -0.000001272
     31        1           0.000000029    0.000003313   -0.000000859
     32        1           0.000001147   -0.000002750   -0.000000531
     33        1           0.000001738    0.000002287   -0.000002595
     34        1          -0.000002101   -0.000001172   -0.000000872
     35        1          -0.000000090    0.000001608   -0.000002906
     36        1          -0.000000908    0.000001767    0.000000537
     37        1           0.000000142    0.000001412   -0.000003516
     38        1           0.000000864   -0.000001004    0.000003731
     39        1          -0.000003664    0.000002250   -0.000001375
     40        1           0.000000921    0.000002174    0.000000148
     41        1          -0.000000216    0.000005763    0.000003394
     42        1          -0.000000593    0.000002371    0.000001811
     43        1          -0.000002498   -0.000002513   -0.000001186
     44        1          -0.000000580    0.000010991   -0.000003768
     45        1           0.000004310   -0.000004146   -0.000001404
     46        1           0.000002819   -0.000002221   -0.000005118
     47        1          -0.000000060   -0.000001905   -0.000001386
     48        1          -0.000002290    0.000000526   -0.000001666
     49        1           0.000004510   -0.000001782   -0.000002583
     50        1           0.000001744   -0.000002407   -0.000000650
     51        1           0.000000636   -0.000003753   -0.000002103
     52        1           0.000002488    0.000000470    0.000000495
     53        1          -0.000001207    0.000004723    0.000002306
     54        1           0.000002504    0.000001572    0.000003667
     55        1          -0.000000530    0.000001771    0.000002951
     56        1          -0.000004584   -0.000000405    0.000000266
     57        1          -0.000000424    0.000001097    0.000000412
     58        1          -0.000002030   -0.000003652    0.000000428
     59        1          -0.000004256    0.000000996    0.000002048
     60        1           0.000001134   -0.000001654    0.000001112
     61        1          -0.000004949   -0.000001139    0.000000714
     62        1           0.000002246   -0.000004105   -0.000002161
     63        1          -0.000001606    0.000000172   -0.000000091
     64        1           0.000002315   -0.000002010   -0.000002842
     65        1          -0.000001248    0.000000876   -0.000000451
     66        1           0.000000055    0.000002265    0.000001820
     67        1           0.000000754   -0.000001327    0.000000919
     68        1           0.000001507    0.000000483    0.000000968
     69        1           0.000000121    0.000000989   -0.000000728
     70        1           0.000001223    0.000002078   -0.000001139
     71        1          -0.000000080    0.000004297   -0.000001198
     72        1          -0.000004707   -0.000001348   -0.000003408
     73        1          -0.000001096    0.000002288   -0.000002049
     74        1          -0.000002997   -0.000000950   -0.000004151
 -------------------------------------------------------------------
 Cartesian Forces:  Max     0.000012546 RMS     0.000003633
 Leave Link  716 at Mon Jul 28 19:18:12 2025, MaxMem=  1073741824 cpu:               0.2 elap:               0.0
 (Enter /app/gaussian/g16/l103.exe)

 GradGradGradGradGradGradGradGradGradGradGradGradGradGradGradGradGradGrad
 Berny optimization.
 Using GEDIIS/GDIIS optimizer.
 FormGI is forming the generalized inverse of G from B-inverse, IUseBI=4.
 Internal  Forces:  Max     0.000016767 RMS     0.000002318
 Search for a local minimum.
 Step number   9 out of a maximum of  444
 All quantities printed in internal units (Hartrees-Bohrs-Radians)
 RMS Force = .23183D-05 SwitMx=.10000D-02 MixMth= 2
 Mixed Optimization -- En-DIIS/RFO-DIIS
 Swapping is turned off.
 Update second derivatives using D2CorX and points    1    2    3    4    5
                                                      6    7    8    9
 DE= -1.41D-07 DEPred=-1.25D-07 R= 1.12D+00
 Trust test= 1.12D+00 RLast= 3.69D-03 DXMaxT set to 8.11D-01
 ITU=  0  0  1  1  1  0  1  1  0
     Eigenvalues ---    0.00221   0.00232   0.00234   0.00236   0.00304
     Eigenvalues ---    0.00311   0.00337   0.00352   0.00358   0.00383
     Eigenvalues ---    0.00408   0.00471   0.00497   0.00544   0.00570
     Eigenvalues ---    0.00648   0.00779   0.00965   0.01169   0.01216
     Eigenvalues ---    0.01539   0.01644   0.01738   0.02202   0.02346
     Eigenvalues ---    0.02471   0.02692   0.03061   0.03122   0.03175
     Eigenvalues ---    0.03200   0.03247   0.03403   0.03487   0.03521
     Eigenvalues ---    0.03670   0.03753   0.03861   0.03881   0.04276
     Eigenvalues ---    0.04386   0.04410   0.04506   0.04611   0.04646
     Eigenvalues ---    0.04685   0.04693   0.04704   0.04721   0.04758
     Eigenvalues ---    0.04808   0.04824   0.04876   0.04929   0.05053
     Eigenvalues ---    0.05078   0.05119   0.05230   0.05276   0.05365
     Eigenvalues ---    0.05393   0.05418   0.05427   0.05429   0.05444
     Eigenvalues ---    0.05469   0.05497   0.05534   0.05545   0.05554
     Eigenvalues ---    0.05581   0.05600   0.05642   0.05825   0.05859
     Eigenvalues ---    0.06017   0.06114   0.06602   0.06977   0.07120
     Eigenvalues ---    0.07346   0.07495   0.07748   0.08024   0.08124
     Eigenvalues ---    0.08139   0.08255   0.08658   0.08774   0.08858
     Eigenvalues ---    0.08922   0.09019   0.09183   0.09291   0.09535
     Eigenvalues ---    0.10294   0.10402   0.10795   0.11365   0.12511
     Eigenvalues ---    0.12618   0.12633   0.12695   0.12922   0.13641
     Eigenvalues ---    0.13942   0.14595   0.15137   0.15579   0.15800
     Eigenvalues ---    0.15814   0.15944   0.16000   0.16000   0.16000
     Eigenvalues ---    0.16000   0.16000   0.16000   0.16000   0.16000
     Eigenvalues ---    0.16005   0.16008   0.16032   0.16060   0.16166
     Eigenvalues ---    0.16241   0.16585   0.16881   0.17004   0.17862
     Eigenvalues ---    0.18407   0.18686   0.19429   0.19800   0.21438
     Eigenvalues ---    0.21889   0.21940   0.22121   0.22257   0.22615
     Eigenvalues ---    0.23281   0.25492   0.25686   0.25973   0.26300
     Eigenvalues ---    0.26887   0.27022   0.27493   0.27613   0.27827
     Eigenvalues ---    0.27878   0.28234   0.28393   0.28441   0.28611
     Eigenvalues ---    0.28670   0.28804   0.28925   0.28989   0.29231
     Eigenvalues ---    0.29387   0.29420   0.29521   0.30114   0.30215
     Eigenvalues ---    0.30883   0.31120   0.31637   0.33268   0.33448
     Eigenvalues ---    0.33558   0.33747   0.33820   0.33872   0.33893
     Eigenvalues ---    0.33923   0.33944   0.33963   0.33998   0.34000
     Eigenvalues ---    0.34014   0.34022   0.34036   0.34047   0.34094
     Eigenvalues ---    0.34117   0.34124   0.34132   0.34137   0.34146
     Eigenvalues ---    0.34150   0.34169   0.34184   0.34199   0.34212
     Eigenvalues ---    0.34220   0.34227   0.34231   0.34245   0.34249
     Eigenvalues ---    0.34262   0.34278   0.34306   0.34315   0.34342
     Eigenvalues ---    0.34346   0.34448   0.34488   0.34559   0.34593
     Eigenvalues ---    0.34936   0.35005   0.36067   0.38458   0.52901
     Eigenvalues ---    0.53504
 En-DIIS/RFO-DIIS/Sim-DIIS IScMMF=       -3 using points:     9    8    7    6    5    4    3    2
 RFO step:  Lambda=-3.09497755D-08.
 NNeg= 0 NGDIIS= 8 SimSw=  2.50D-01 Rises=F DC= -1.41D-07 SmlDif=  1.00D-05
 NRisDI= 0 DoIntr=F SqrtH=F CThrHd= 10.0 CDAdj=  3.0
 RMS Error=  0.7390867932D-04 NUsed= 8 OKEnD=F EnDIS=F
 InvSVX:  RCond= 2.77D-07 Info=           0 Equed=N FErr=  7.04D-15 BErr=  1.05D-16
 DidBck=F Rises=F RFO-DIIS coefs:    1.03207   -0.01829    0.01532   -0.03376   -0.00120
                  RFO-DIIS coefs:    0.00719    0.00132   -0.00264
 Iteration  1 RMS(Cart)=  0.00027027 RMS(Int)=  0.00000006
 Iteration  2 RMS(Cart)=  0.00000003 RMS(Int)=  0.00000006
 ITry= 1 IFail=0 DXMaxC= 1.33D-03 DCOld= 1.00D+10 DXMaxT= 8.11D-01 DXLimC= 3.00D+00 Rises=F
 Variable       Old X    -DE/DX   Delta X   Delta X   Delta X     New X
                                 (Linear)    (Quad)   (Total)
    R1        2.92817  -0.00000   0.00001  -0.00001   0.00000   2.92817
    R2        2.07176   0.00000   0.00000   0.00000   0.00001   2.07177
    R3        2.06714   0.00000   0.00000   0.00000   0.00000   2.06715
    R4        2.06998  -0.00000  -0.00000  -0.00001  -0.00001   2.06997
    R5        2.95186   0.00000   0.00000  -0.00000   0.00000   2.95186
    R6        2.92484  -0.00001   0.00000  -0.00004  -0.00004   2.92480
    R7        2.97716  -0.00002   0.00001  -0.00006  -0.00005   2.97711
    R8        2.90666   0.00000  -0.00001   0.00002   0.00001   2.90668
    R9        2.91211  -0.00000   0.00000  -0.00002  -0.00002   2.91209
   R10        2.09052  -0.00000   0.00000  -0.00001  -0.00000   2.09051
   R11        2.94260  -0.00000  -0.00001   0.00001  -0.00000   2.94259
   R12        2.91596  -0.00000   0.00000  -0.00001  -0.00001   2.91595
   R13        2.07994  -0.00000   0.00001  -0.00002  -0.00001   2.07993
   R14        2.97583   0.00000  -0.00002   0.00003   0.00001   2.97584
   R15        2.93097   0.00000   0.00000  -0.00000  -0.00000   2.93096
   R16        2.08812   0.00000   0.00001  -0.00000   0.00000   2.08812
   R17        2.94285  -0.00000   0.00001  -0.00001  -0.00000   2.94284
   R18        2.91077   0.00001   0.00001   0.00002   0.00003   2.91080
   R19        2.96086   0.00000   0.00002  -0.00000   0.00001   2.96087
   R20        2.06747  -0.00000  -0.00000   0.00000  -0.00000   2.06747
   R21        2.07006  -0.00000   0.00000  -0.00001  -0.00000   2.07005
   R22        2.07034  -0.00000   0.00000  -0.00000  -0.00000   2.07033
   R23        2.54270   0.00000  -0.00001   0.00001   0.00000   2.54271
   R24        2.87507   0.00000  -0.00001   0.00002   0.00001   2.87509
   R25        2.84500   0.00000  -0.00000   0.00001   0.00001   2.84501
   R26        2.06189  -0.00000   0.00000  -0.00001  -0.00000   2.06188
   R27        2.07796  -0.00000   0.00000  -0.00001  -0.00001   2.07794
   R28        2.08704   0.00000   0.00000   0.00000   0.00001   2.08705
   R29        2.90420  -0.00000  -0.00001  -0.00002  -0.00003   2.90418
   R30        2.07630  -0.00001   0.00000  -0.00001  -0.00001   2.07629
   R31        2.07897   0.00000   0.00000  -0.00000   0.00000   2.07897
   R32        2.77786  -0.00000   0.00001   0.00001   0.00002   2.77787
   R33        2.87948  -0.00000  -0.00001  -0.00001  -0.00001   2.87947
   R34        2.08134   0.00000   0.00001  -0.00000   0.00000   2.08134
   R35        1.84923  -0.00000  -0.00000  -0.00000  -0.00001   1.84923
   R36        2.91145   0.00000  -0.00002   0.00004   0.00002   2.91147
   R37        2.07230  -0.00001   0.00000  -0.00001  -0.00001   2.07228
   R38        2.07428  -0.00000   0.00000  -0.00002  -0.00002   2.07426
   R39        2.07235  -0.00000  -0.00000  -0.00000  -0.00000   2.07234
   R40        2.07966   0.00000   0.00000   0.00000   0.00000   2.07966
   R41        2.92606  -0.00000  -0.00001  -0.00000  -0.00001   2.92605
   R42        2.07408  -0.00000   0.00000  -0.00001  -0.00001   2.07407
   R43        2.07204   0.00000   0.00000  -0.00000  -0.00000   2.07204
   R44        2.08104  -0.00000   0.00000  -0.00000  -0.00000   2.08104
   R45        2.07061   0.00000  -0.00000   0.00000  -0.00000   2.07061
   R46        2.94525  -0.00000  -0.00001   0.00000  -0.00001   2.94524
   R47        2.07589  -0.00000   0.00000  -0.00001  -0.00001   2.07588
   R48        2.07079  -0.00000   0.00000  -0.00001  -0.00001   2.07078
   R49        2.97348   0.00000   0.00001   0.00001   0.00001   2.97349
   R50        2.07486   0.00000   0.00000  -0.00000   0.00000   2.07486
   R51        2.07024  -0.00000  -0.00000  -0.00000  -0.00000   2.07024
   R52        2.94137  -0.00001  -0.00000  -0.00002  -0.00002   2.94136
   R53        2.08636   0.00000   0.00001  -0.00000   0.00000   2.08637
   R54        2.94089   0.00000   0.00001   0.00000   0.00001   2.94090
   R55        2.91576  -0.00000  -0.00000  -0.00001  -0.00001   2.91575
   R56        2.08069   0.00000   0.00001   0.00000   0.00001   2.08070
   R57        2.92270   0.00000  -0.00001   0.00001   0.00000   2.92270
   R58        2.07230  -0.00000   0.00000  -0.00001  -0.00001   2.07229
   R59        2.08267  -0.00000   0.00001  -0.00001  -0.00000   2.08267
   R60        2.91984   0.00000  -0.00002   0.00003   0.00002   2.91986
   R61        2.07726  -0.00000   0.00000  -0.00002  -0.00001   2.07725
   R62        2.07583  -0.00000   0.00000  -0.00001  -0.00001   2.07582
   R63        2.92734   0.00000  -0.00000   0.00001   0.00001   2.92735
   R64        2.08226  -0.00000   0.00001  -0.00001  -0.00000   2.08226
   R65        2.07890  -0.00000   0.00000  -0.00001  -0.00001   2.07889
   R66        2.91432   0.00000  -0.00001   0.00001   0.00000   2.91432
   R67        2.91588  -0.00000  -0.00001   0.00000  -0.00001   2.91588
   R68        2.08126   0.00000   0.00001  -0.00001   0.00000   2.08126
   R69        2.07364  -0.00000   0.00000  -0.00001  -0.00001   2.07363
   R70        2.07103  -0.00000   0.00000  -0.00000  -0.00000   2.07102
   R71        2.07691   0.00000   0.00000   0.00000   0.00001   2.07692
   R72        2.07648  -0.00000   0.00000  -0.00000   0.00000   2.07648
   R73        2.07385  -0.00000   0.00000  -0.00000  -0.00000   2.07385
   R74        2.07350  -0.00000   0.00000  -0.00001  -0.00001   2.07349
   R75        2.06565   0.00000  -0.00000   0.00000   0.00000   2.06565
   R76        2.07620   0.00000   0.00000   0.00001   0.00001   2.07621
   R77        2.06992  -0.00000   0.00000  -0.00001  -0.00001   2.06991
    A1        1.92922   0.00000  -0.00000   0.00003   0.00003   1.92925
    A2        1.95763  -0.00000  -0.00000  -0.00002  -0.00002   1.95761
    A3        1.94977  -0.00000   0.00000  -0.00001  -0.00001   1.94976
    A4        1.87368   0.00000   0.00000  -0.00000   0.00000   1.87369
    A5        1.87572  -0.00000  -0.00000  -0.00001  -0.00001   1.87571
    A6        1.87393   0.00000   0.00000   0.00001   0.00001   1.87394
    A7        1.96231   0.00000   0.00000   0.00004   0.00005   1.96235
    A8        1.93502  -0.00000   0.00001  -0.00004  -0.00003   1.93499
    A9        1.92349   0.00000   0.00000  -0.00001  -0.00001   1.92348
   A10        1.85550   0.00000  -0.00002   0.00001  -0.00001   1.85549
   A11        1.74562  -0.00000   0.00000   0.00003   0.00003   1.74565
   A12        2.03367  -0.00000   0.00001  -0.00003  -0.00002   2.03366
   A13        2.01095  -0.00000   0.00001  -0.00001   0.00000   2.01095
   A14        1.82080   0.00000   0.00003  -0.00001   0.00003   1.82083
   A15        1.83514  -0.00000  -0.00003   0.00003  -0.00000   1.83514
   A16        2.07279   0.00000  -0.00001   0.00002   0.00001   2.07280
   A17        1.84657   0.00000  -0.00001   0.00000  -0.00001   1.84656
   A18        1.85955  -0.00000   0.00000  -0.00004  -0.00004   1.85952
   A19        1.91382  -0.00000  -0.00002   0.00003   0.00001   1.91383
   A20        1.93441   0.00000  -0.00002   0.00003   0.00001   1.93442
   A21        1.90799  -0.00000   0.00002  -0.00005  -0.00002   1.90797
   A22        1.91605   0.00000  -0.00001  -0.00001  -0.00001   1.91604
   A23        1.90584  -0.00000   0.00000   0.00000   0.00000   1.90584
   A24        1.88530   0.00000   0.00002  -0.00000   0.00002   1.88532
   A25        1.96479   0.00000  -0.00002   0.00001  -0.00001   1.96479
   A26        1.95415  -0.00000  -0.00001   0.00003   0.00002   1.95417
   A27        1.84308   0.00000   0.00001  -0.00001   0.00000   1.84308
   A28        1.97750  -0.00000  -0.00000   0.00001   0.00001   1.97750
   A29        1.84596  -0.00000   0.00001  -0.00002  -0.00002   1.84594
   A30        1.86671   0.00000   0.00003  -0.00004  -0.00000   1.86670
   A31        1.94822   0.00000  -0.00002   0.00003   0.00002   1.94823
   A32        1.92087  -0.00000  -0.00001  -0.00002  -0.00003   1.92084
   A33        1.89341   0.00000  -0.00000   0.00003   0.00003   1.89344
   A34        1.90024  -0.00000   0.00001  -0.00003  -0.00002   1.90023
   A35        1.91117   0.00000   0.00002  -0.00001   0.00001   1.91118
   A36        1.88901  -0.00000  -0.00001  -0.00000  -0.00001   1.88900
   A37        1.94328  -0.00000   0.00000  -0.00002  -0.00002   1.94326
   A38        1.93703   0.00000  -0.00002   0.00003   0.00001   1.93704
   A39        1.94159  -0.00000  -0.00000  -0.00002  -0.00002   1.94157
   A40        1.87431   0.00000   0.00001   0.00000   0.00001   1.87432
   A41        1.87248   0.00000   0.00001  -0.00000   0.00001   1.87249
   A42        1.89230   0.00000   0.00000   0.00001   0.00001   1.89231
   A43        2.14749   0.00000   0.00001   0.00001   0.00002   2.14751
   A44        2.03239  -0.00000   0.00001  -0.00002  -0.00001   2.03237
   A45        2.10330   0.00000  -0.00002   0.00001  -0.00000   2.10330
   A46        2.18379  -0.00000  -0.00001  -0.00000  -0.00001   2.18378
   A47        2.07145   0.00000  -0.00000   0.00001   0.00001   2.07146
   A48        2.02793   0.00000   0.00001  -0.00001   0.00001   2.02793
   A49        1.97330   0.00000  -0.00001  -0.00000  -0.00001   1.97329
   A50        1.91772   0.00000   0.00002   0.00002   0.00004   1.91776
   A51        1.90531  -0.00000  -0.00001  -0.00002  -0.00003   1.90529
   A52        1.91166  -0.00000   0.00001  -0.00001  -0.00001   1.91165
   A53        1.91030   0.00000   0.00001  -0.00000   0.00000   1.91030
   A54        1.84084   0.00000  -0.00001   0.00001   0.00000   1.84084
   A55        1.95600   0.00000  -0.00003   0.00004   0.00001   1.95601
   A56        1.91059   0.00000  -0.00001   0.00002   0.00002   1.91061
   A57        1.93537  -0.00000   0.00000   0.00000   0.00000   1.93538
   A58        1.92576  -0.00000   0.00002  -0.00005  -0.00003   1.92573
   A59        1.86859  -0.00000  -0.00000  -0.00002  -0.00002   1.86857
   A60        1.86512   0.00000   0.00002  -0.00000   0.00002   1.86514
   A61        1.94413  -0.00000  -0.00003   0.00001  -0.00002   1.94411
   A62        1.93114  -0.00000   0.00002   0.00000   0.00002   1.93116
   A63        1.91246   0.00000   0.00004  -0.00002   0.00002   1.91247
   A64        1.86186   0.00000  -0.00008   0.00008   0.00001   1.86186
   A65        1.89882  -0.00000  -0.00000  -0.00003  -0.00003   1.89879
   A66        1.91457   0.00000   0.00006  -0.00004   0.00001   1.91458
   A67        1.93896  -0.00000  -0.00006   0.00006   0.00000   1.93896
   A68        1.93305   0.00000  -0.00004   0.00006   0.00002   1.93307
   A69        1.91034  -0.00000   0.00001  -0.00001   0.00001   1.91035
   A70        1.89286  -0.00000   0.00002  -0.00006  -0.00004   1.89283
   A71        1.92225  -0.00000  -0.00000   0.00000   0.00000   1.92225
   A72        1.94076  -0.00000  -0.00001  -0.00002  -0.00002   1.94074
   A73        1.86294   0.00000   0.00002   0.00001   0.00003   1.86297
   A74        2.00155  -0.00000  -0.00000   0.00001   0.00000   2.00155
   A75        1.90682  -0.00000   0.00001  -0.00002  -0.00001   1.90681
   A76        1.88617   0.00000  -0.00001   0.00000  -0.00001   1.88616
   A77        1.90320   0.00000  -0.00001   0.00003   0.00002   1.90322
   A78        1.89840  -0.00000  -0.00000  -0.00002  -0.00002   1.89839
   A79        1.86272   0.00000   0.00001  -0.00001   0.00001   1.86273
   A80        1.99211   0.00000  -0.00000  -0.00001  -0.00001   1.99210
   A81        1.91186  -0.00000   0.00001  -0.00001   0.00000   1.91186
   A82        1.91599  -0.00000  -0.00000  -0.00000  -0.00001   1.91598
   A83        1.89182  -0.00000   0.00001  -0.00001  -0.00001   1.89181
   A84        1.89415  -0.00000  -0.00001   0.00000  -0.00001   1.89414
   A85        1.85260   0.00000   0.00000   0.00003   0.00003   1.85263
   A86        1.95032  -0.00000  -0.00001  -0.00004  -0.00006   1.95027
   A87        1.89517  -0.00000  -0.00000  -0.00001  -0.00001   1.89516
   A88        1.94904  -0.00000   0.00000   0.00000   0.00000   1.94904
   A89        1.91196   0.00000   0.00000   0.00001   0.00001   1.91197
   A90        1.89293   0.00000  -0.00000   0.00002   0.00002   1.89296
   A91        1.86220   0.00000   0.00001   0.00002   0.00003   1.86223
   A92        1.81124  -0.00000  -0.00001   0.00001  -0.00000   1.81124
   A93        1.93144  -0.00000   0.00001  -0.00005  -0.00005   1.93140
   A94        1.96080   0.00000   0.00000   0.00002   0.00003   1.96082
   A95        1.94022  -0.00000   0.00000  -0.00001  -0.00001   1.94021
   A96        1.95586   0.00000   0.00000  -0.00000  -0.00000   1.95586
   A97        1.86589   0.00000   0.00000   0.00003   0.00003   1.86592
   A98        1.87171  -0.00000   0.00002  -0.00000   0.00001   1.87173
   A99        1.93450   0.00000  -0.00001   0.00002   0.00001   1.93451
   A100       1.94035  -0.00000   0.00000  -0.00003  -0.00003   1.94032
   A101       1.92231  -0.00000  -0.00002  -0.00000  -0.00003   1.92228
   A102       1.93543   0.00000   0.00002  -0.00002   0.00000   1.93543
   A103       1.86042   0.00000  -0.00000   0.00004   0.00003   1.86045
   A104       1.80266   0.00000   0.00002  -0.00001   0.00001   1.80267
   A105       2.08617  -0.00001   0.00001  -0.00006  -0.00005   2.08612
   A106       1.85297   0.00000  -0.00002   0.00002   0.00001   1.85298
   A107       1.96043   0.00001  -0.00003   0.00004   0.00001   1.96044
   A108       1.88755  -0.00000   0.00001   0.00000   0.00001   1.88756
   A109       1.86449   0.00000   0.00001  -0.00000   0.00001   1.86451
   A110       1.91333  -0.00000  -0.00002   0.00000  -0.00002   1.91331
   A111       1.97467  -0.00001   0.00003  -0.00006  -0.00003   1.97463
   A112       1.87574   0.00000   0.00000  -0.00004  -0.00003   1.87571
   A113       1.92684   0.00001   0.00001   0.00006   0.00007   1.92691
   A114       1.88289  -0.00000  -0.00001   0.00001   0.00001   1.88290
   A115       1.88730   0.00000  -0.00001   0.00002   0.00001   1.88731
   A116       2.03387   0.00000  -0.00001   0.00003   0.00002   2.03389
   A117       1.90376  -0.00000  -0.00001  -0.00003  -0.00005   1.90371
   A118       1.88541  -0.00000   0.00001  -0.00001   0.00001   1.88541
   A119       1.89302   0.00000  -0.00001   0.00002   0.00001   1.89303
   A120       1.88900  -0.00000  -0.00000   0.00000   0.00000   1.88900
   A121       1.85032   0.00000   0.00002  -0.00001   0.00000   1.85032
   A122       2.01968  -0.00000  -0.00003   0.00003  -0.00000   2.01968
   A123       1.88333  -0.00000   0.00001  -0.00002  -0.00002   1.88331
   A124       1.91630   0.00000   0.00000   0.00000   0.00001   1.91631
   A125       1.90754   0.00000   0.00000   0.00000   0.00000   1.90754
   A126       1.88962  -0.00000   0.00000   0.00001   0.00001   1.88963
   A127       1.83896  -0.00000   0.00002  -0.00002   0.00000   1.83896
   A128       2.02966  -0.00000  -0.00002   0.00001  -0.00001   2.02965
   A129       1.89149   0.00000  -0.00000   0.00001   0.00001   1.89149
   A130       1.90707   0.00000   0.00000   0.00001   0.00001   1.90708
   A131       1.88663   0.00000   0.00001  -0.00000   0.00001   1.88664
   A132       1.89163  -0.00000  -0.00000  -0.00001  -0.00001   1.89161
   A133       1.84907  -0.00000   0.00002  -0.00002  -0.00000   1.84906
   A134       1.96055  -0.00000  -0.00000   0.00001   0.00000   1.96055
   A135       1.92248   0.00000  -0.00000   0.00001   0.00001   1.92249
   A136       1.88933  -0.00000   0.00000  -0.00001  -0.00001   1.88932
   A137       1.92801   0.00000  -0.00001   0.00001   0.00000   1.92801
   A138       1.88381  -0.00000   0.00000  -0.00001  -0.00000   1.88380
   A139       1.87692   0.00000   0.00001  -0.00001  -0.00000   1.87692
   A140       1.93376  -0.00000   0.00000   0.00000   0.00000   1.93376
   A141       1.95593   0.00000  -0.00001   0.00002   0.00001   1.95593
   A142       1.92969  -0.00000  -0.00000  -0.00001  -0.00001   1.92968
   A143       1.87840   0.00000   0.00001  -0.00001   0.00001   1.87840
   A144       1.88063   0.00000   0.00000  -0.00001  -0.00001   1.88063
   A145       1.88268  -0.00000  -0.00000  -0.00000  -0.00000   1.88268
   A146       1.93155  -0.00000  -0.00000  -0.00001  -0.00001   1.93154
   A147       1.94221  -0.00000  -0.00001   0.00000  -0.00001   1.94220
   A148       1.94065  -0.00000  -0.00000  -0.00001  -0.00001   1.94064
   A149       1.88137   0.00000   0.00000   0.00000   0.00001   1.88138
   A150       1.88123   0.00000   0.00000   0.00000   0.00001   1.88123
   A151       1.88441   0.00000   0.00001   0.00001   0.00002   1.88444
   A152       1.95458  -0.00000   0.00001  -0.00003  -0.00002   1.95456
   A153       1.93389   0.00000  -0.00000   0.00001   0.00001   1.93390
   A154       1.94076   0.00000  -0.00002   0.00002   0.00001   1.94076
   A155       1.88297  -0.00000  -0.00000  -0.00002  -0.00002   1.88295
   A156       1.86827   0.00000   0.00002   0.00001   0.00003   1.86829
   A157       1.88009  -0.00000   0.00000  -0.00000  -0.00000   1.88008
    D1       -3.09384  -0.00000  -0.00002  -0.00004  -0.00006  -3.09389
    D2       -1.01944   0.00000  -0.00004  -0.00002  -0.00006  -1.01950
    D3        1.25834  -0.00000  -0.00002  -0.00009  -0.00011   1.25823
    D4       -1.00344  -0.00000  -0.00001  -0.00003  -0.00005  -1.00349
    D5        1.07095   0.00000  -0.00004  -0.00001  -0.00005   1.07090
    D6       -2.93445  -0.00000  -0.00002  -0.00009  -0.00011  -2.93456
    D7        1.10157  -0.00000  -0.00001  -0.00004  -0.00005   1.10152
    D8       -3.10723   0.00000  -0.00004  -0.00002  -0.00006  -3.10728
    D9       -0.82944  -0.00000  -0.00002  -0.00009  -0.00011  -0.82955
   D10        1.07371  -0.00000  -0.00003  -0.00003  -0.00006   1.07366
   D11       -1.23020  -0.00000  -0.00005  -0.00004  -0.00010  -1.23030
   D12        3.09931  -0.00000  -0.00005  -0.00001  -0.00006   3.09925
   D13       -1.04670  -0.00000  -0.00002  -0.00002  -0.00004  -1.04674
   D14        2.93257  -0.00000  -0.00005  -0.00003  -0.00008   2.93249
   D15        0.97889  -0.00000  -0.00005   0.00000  -0.00005   0.97885
   D16        3.11397   0.00000  -0.00003  -0.00000  -0.00003   3.11394
   D17        0.81006  -0.00000  -0.00005  -0.00002  -0.00007   0.80999
   D18       -1.14362   0.00000  -0.00005   0.00001  -0.00004  -1.14365
   D19       -1.15522  -0.00000   0.00003   0.00007   0.00009  -1.15512
   D20        3.01715  -0.00000   0.00003   0.00009   0.00012   3.01727
   D21        0.96861  -0.00000   0.00002   0.00007   0.00009   0.96870
   D22        0.98254   0.00000   0.00002   0.00011   0.00013   0.98267
   D23       -1.12828   0.00000   0.00002   0.00013   0.00015  -1.12812
   D24        3.10637   0.00000   0.00001   0.00011   0.00012   3.10649
   D25        2.90940   0.00000   0.00001   0.00014   0.00015   2.90955
   D26        0.79859   0.00000   0.00002   0.00016   0.00018   0.79877
   D27       -1.24995   0.00000   0.00000   0.00014   0.00014  -1.24981
   D28        1.38191   0.00000   0.00008   0.00006   0.00015   1.38205
   D29       -0.81044  -0.00000   0.00010   0.00005   0.00016  -0.81028
   D30       -2.91714   0.00000   0.00009   0.00007   0.00016  -2.91698
   D31       -0.68718  -0.00000   0.00008   0.00000   0.00008  -0.68710
   D32       -2.87952  -0.00000   0.00010  -0.00001   0.00009  -2.87943
   D33        1.29696   0.00000   0.00009   0.00001   0.00010   1.29706
   D34       -2.67704  -0.00000   0.00010  -0.00002   0.00008  -2.67696
   D35        1.41380  -0.00000   0.00012  -0.00003   0.00009   1.41389
   D36       -0.69290  -0.00000   0.00011  -0.00001   0.00010  -0.69280
   D37        0.99223  -0.00000   0.00003  -0.00012  -0.00009   0.99214
   D38        3.11037  -0.00000  -0.00001  -0.00009  -0.00010   3.11028
   D39       -1.09662  -0.00000   0.00002  -0.00010  -0.00009  -1.09671
   D40       -3.11308  -0.00000   0.00008  -0.00011  -0.00004  -3.11312
   D41       -0.99494   0.00000   0.00004  -0.00009  -0.00004  -0.99498
   D42        1.08125   0.00000   0.00007  -0.00010  -0.00003   1.08122
   D43       -1.02685  -0.00000   0.00007  -0.00015  -0.00008  -1.02693
   D44        1.09130  -0.00000   0.00003  -0.00012  -0.00009   1.09121
   D45       -3.11570  -0.00000   0.00006  -0.00014  -0.00008  -3.11578
   D46       -0.60506   0.00000   0.00001   0.00005   0.00005  -0.60501
   D47        1.47760   0.00000   0.00000   0.00001   0.00002   1.47762
   D48       -2.72146   0.00000   0.00001   0.00003   0.00004  -2.72142
   D49       -2.87269   0.00000  -0.00003   0.00005   0.00001  -2.87267
   D50       -0.79003  -0.00000  -0.00004   0.00001  -0.00002  -0.79005
   D51        1.29410   0.00000  -0.00003   0.00003   0.00000   1.29410
   D52        1.33096   0.00000  -0.00002   0.00006   0.00005   1.33101
   D53       -2.86956  -0.00000  -0.00002   0.00003   0.00001  -2.86955
   D54       -0.78543   0.00000  -0.00001   0.00005   0.00003  -0.78540
   D55       -3.10611   0.00000   0.00001   0.00006   0.00007  -3.10604
   D56       -0.85428   0.00000  -0.00002   0.00012   0.00009  -0.85418
   D57        1.17109   0.00000   0.00001   0.00008   0.00010   1.17118
   D58        1.04792   0.00000   0.00005   0.00001   0.00006   1.04799
   D59       -2.98343   0.00000   0.00002   0.00007   0.00009  -2.98334
   D60       -0.95807   0.00000   0.00005   0.00004   0.00009  -0.95798
   D61       -1.01594  -0.00000   0.00003   0.00002   0.00005  -1.01589
   D62        1.23590  -0.00000  -0.00000   0.00008   0.00007   1.23597
   D63       -3.02193  -0.00000   0.00003   0.00004   0.00008  -3.02185
   D64       -2.85681  -0.00000  -0.00000  -0.00007  -0.00008  -2.85689
   D65        1.28481  -0.00000  -0.00002  -0.00007  -0.00009   1.28472
   D66       -0.72604  -0.00000  -0.00001  -0.00009  -0.00010  -0.72614
   D67       -0.73998  -0.00000  -0.00004  -0.00003  -0.00007  -0.74005
   D68       -2.88154   0.00000  -0.00006  -0.00003  -0.00009  -2.88163
   D69        1.39079  -0.00000  -0.00005  -0.00005  -0.00010   1.39070
   D70        1.33655   0.00000  -0.00003  -0.00003  -0.00006   1.33649
   D71       -0.80501   0.00000  -0.00005  -0.00003  -0.00008  -0.80509
   D72       -2.81586   0.00000  -0.00004  -0.00005  -0.00009  -2.81595
   D73        1.33148  -0.00000  -0.00002  -0.00002  -0.00005   1.33143
   D74       -0.78059  -0.00000  -0.00003   0.00001  -0.00002  -0.78060
   D75       -2.84435   0.00000  -0.00001   0.00001  -0.00001  -2.84436
   D76       -0.90819  -0.00000   0.00002  -0.00009  -0.00007  -0.90826
   D77       -3.02026   0.00000   0.00001  -0.00006  -0.00004  -3.02030
   D78        1.19916   0.00000   0.00003  -0.00006  -0.00003   1.19913
   D79       -2.94746  -0.00000  -0.00002  -0.00004  -0.00006  -2.94752
   D80        1.22366   0.00000  -0.00003  -0.00000  -0.00003   1.22363
   D81       -0.84011   0.00000  -0.00001  -0.00001  -0.00002  -0.84013
   D82        0.87097   0.00000   0.00004  -0.00003   0.00001   0.87099
   D83        2.99562  -0.00000   0.00006  -0.00006   0.00000   2.99562
   D84       -1.25981   0.00000   0.00006  -0.00003   0.00004  -1.25978
   D85        3.11613   0.00000  -0.00000   0.00003   0.00003   3.11616
   D86       -1.04241  -0.00000   0.00001   0.00000   0.00001  -1.04239
   D87        0.98534   0.00000   0.00002   0.00003   0.00005   0.98539
   D88       -1.14001   0.00000   0.00002  -0.00002   0.00001  -1.14000
   D89        0.98464  -0.00000   0.00004  -0.00004  -0.00001   0.98464
   D90        3.01239   0.00000   0.00004  -0.00001   0.00003   3.01242
   D91       -2.99294   0.00000   0.00002   0.00001   0.00003  -2.99291
   D92       -0.90600   0.00000   0.00002   0.00002   0.00004  -0.90596
   D93        1.20258   0.00000   0.00000   0.00004   0.00005   1.20262
   D94       -0.86891  -0.00000   0.00001  -0.00001  -0.00001  -0.86891
   D95        1.21803  -0.00000   0.00001  -0.00000   0.00000   1.21804
   D96       -2.95658   0.00000  -0.00001   0.00002   0.00001  -2.95657
   D97        1.19330  -0.00000   0.00002  -0.00004  -0.00002   1.19327
   D98       -3.00295  -0.00000   0.00002  -0.00003  -0.00001  -3.00296
   D99       -0.89437  -0.00000   0.00000  -0.00001  -0.00000  -0.89438
   D100       0.24562  -0.00000   0.00000  -0.00000  -0.00000   0.24562
   D101      -2.89816  -0.00000   0.00002  -0.00005  -0.00004  -2.89819
   D102      -1.89496   0.00000   0.00002  -0.00001   0.00000  -1.89495
   D103       1.24445  -0.00000   0.00003  -0.00006  -0.00003   1.24442
   D104       2.31210   0.00000  -0.00001   0.00002   0.00001   2.31211
   D105      -0.83168   0.00000   0.00001  -0.00003  -0.00003  -0.83170
   D106       2.94692  -0.00000   0.00000  -0.00003  -0.00003   2.94689
   D107      -1.19398  -0.00000  -0.00000   0.00000  -0.00000  -1.19398
   D108       0.82643  -0.00000   0.00001  -0.00001   0.00000   0.82643
   D109      -1.20614  -0.00000  -0.00001   0.00003   0.00002  -1.20613
   D110       0.93615   0.00000  -0.00001   0.00006   0.00004   0.93619
   D111       2.95655   0.00000   0.00000   0.00004   0.00004   2.95660
   D112       0.86304  -0.00000   0.00001  -0.00002  -0.00000   0.86304
   D113       3.00534  -0.00000   0.00001   0.00001   0.00002   3.00536
   D114      -1.25744   0.00000   0.00003  -0.00000   0.00002  -1.25742
   D115       0.03284   0.00000   0.00001  -0.00003  -0.00002   0.03282
   D116      -3.11531  -0.00000   0.00002  -0.00007  -0.00005  -3.11537
   D117      -3.10648   0.00000  -0.00000   0.00002   0.00002  -3.10646
   D118       0.02855  -0.00000   0.00001  -0.00002  -0.00001   0.02854
   D119       0.90741   0.00000   0.00000   0.00002   0.00002   0.90743
   D120       3.04996  -0.00000   0.00000   0.00000   0.00001   3.04997
   D121      -1.17964   0.00000   0.00003   0.00002   0.00004  -1.17960
   D122      -2.23631   0.00000   0.00002  -0.00003  -0.00001  -2.23633
   D123      -0.09376  -0.00000   0.00002  -0.00005  -0.00003  -0.09379
   D124       1.95982   0.00000   0.00004  -0.00003   0.00001   1.95983
   D125       0.22546  -0.00000   0.00001   0.00004   0.00005   0.22551
   D126       2.37039   0.00000   0.00003   0.00006   0.00010   2.37049
   D127      -1.90252   0.00000   0.00003   0.00007   0.00010  -1.90242
   D128      -2.90972  -0.00000   0.00000   0.00009   0.00009  -2.90964
   D129      -0.76479   0.00000   0.00002   0.00011   0.00013  -0.76466
   D130       1.24549   0.00000   0.00002   0.00011   0.00013   1.24562
   D131      -3.01853  -0.00000   0.00005  -0.00005   0.00000  -3.01852
   D132      -0.95056  -0.00000  -0.00005   0.00007   0.00001  -0.95054
   D133       1.16271   0.00000   0.00005  -0.00000   0.00005   1.16276
   D134       1.13072  -0.00000   0.00007  -0.00007  -0.00000   1.13071
   D135      -3.08450  -0.00000  -0.00004   0.00004   0.00001  -3.08450
   D136      -0.97123   0.00000   0.00007  -0.00003   0.00004  -0.97119
   D137      -0.89277  -0.00000   0.00003  -0.00003  -0.00000  -0.89277
   D138       1.17520  -0.00000  -0.00007   0.00008   0.00001   1.17520
   D139      -2.99472   0.00000   0.00003   0.00001   0.00004  -2.99468
   D140      -1.07003  -0.00001  -0.00007  -0.00046  -0.00053  -1.07056
   D141       3.10409  -0.00001  -0.00002  -0.00052  -0.00054   3.10355
   D142       1.03992  -0.00001  -0.00004  -0.00050  -0.00054   1.03938
   D143       0.98487  -0.00000   0.00007  -0.00012  -0.00005   0.98482
   D144       3.10757   0.00000   0.00005  -0.00008  -0.00002   3.10754
   D145      -1.14937   0.00000   0.00009  -0.00010  -0.00001  -1.14937
   D146       3.10221  -0.00000  -0.00001  -0.00005  -0.00006   3.10216
   D147      -1.05827  -0.00000  -0.00003  -0.00001  -0.00003  -1.05830
   D148       0.96798   0.00000   0.00001  -0.00003  -0.00002   0.96796
   D149      -1.12715  -0.00000  -0.00003  -0.00006  -0.00009  -1.12724
   D150       0.99555  -0.00000  -0.00004  -0.00002  -0.00006   0.99549
   D151       3.02180  -0.00000  -0.00001  -0.00004  -0.00005   3.02175
   D152      -0.97707   0.00000  -0.00004   0.00008   0.00004  -0.97703
   D153      -3.12132   0.00000  -0.00004   0.00007   0.00003  -3.12129
   D154       1.13671   0.00000  -0.00005   0.00007   0.00002   1.13673
   D155      -3.09276  -0.00000  -0.00003   0.00004   0.00002  -3.09275
   D156       1.04618   0.00000  -0.00003   0.00004   0.00001   1.04619
   D157      -0.97898   0.00000  -0.00004   0.00004  -0.00000  -0.97898
   D158       1.12895  -0.00000  -0.00004   0.00003  -0.00001   1.12894
   D159      -1.01530  -0.00000  -0.00005   0.00003  -0.00002  -1.01531
   D160      -3.04045  -0.00000  -0.00006   0.00003  -0.00003  -3.04048
   D161      -0.95630  -0.00000  -0.00005  -0.00007  -0.00012  -0.95642
   D162       1.14472  -0.00000  -0.00005  -0.00011  -0.00016   1.14456
   D163      -3.11217   0.00000  -0.00004  -0.00006  -0.00010  -3.11228
   D164      -3.09195  -0.00000  -0.00006  -0.00005  -0.00011  -3.09206
   D165      -0.99093  -0.00000  -0.00007  -0.00009  -0.00015  -0.99108
   D166       1.03536   0.00000  -0.00005  -0.00004  -0.00009   1.03527
   D167       1.18643  -0.00000  -0.00006  -0.00008  -0.00014   1.18629
   D168      -2.99573  -0.00000  -0.00007  -0.00011  -0.00018  -2.99592
   D169      -0.96944   0.00000  -0.00005  -0.00007  -0.00013  -0.96957
   D170       0.15918  -0.00000   0.00003  -0.00003   0.00000   0.15918
   D171       2.25806  -0.00000   0.00001  -0.00003  -0.00002   2.25804
   D172      -1.95920  -0.00000   0.00000   0.00001   0.00001  -1.95919
   D173      -1.91747   0.00000   0.00003   0.00003   0.00006  -1.91741
   D174       0.18142   0.00000   0.00001   0.00003   0.00004   0.18146
   D175       2.24734   0.00000   0.00000   0.00007   0.00007   2.24741
   D176       2.27888   0.00000   0.00003   0.00000   0.00003   2.27892
   D177      -1.90542  -0.00000   0.00001   0.00000   0.00001  -1.90541
   D178       0.16050   0.00000  -0.00000   0.00004   0.00004   0.16054
   D179       0.33651   0.00000  -0.00007   0.00002  -0.00005   0.33647
   D180       2.60754  -0.00000  -0.00006  -0.00003  -0.00009   2.60745
   D181      -1.62243  -0.00000  -0.00006  -0.00001  -0.00007  -1.62249
   D182      -1.77011   0.00000  -0.00005   0.00000  -0.00005  -1.77016
   D183       0.50091  -0.00000  -0.00005  -0.00005  -0.00009   0.50082
   D184       2.55414   0.00000  -0.00005  -0.00002  -0.00007   2.55407
   D185       2.45798   0.00000  -0.00005  -0.00003  -0.00007   2.45791
   D186      -1.55418  -0.00001  -0.00004  -0.00008  -0.00012  -1.55430
   D187       0.49904  -0.00000  -0.00004  -0.00005  -0.00009   0.49895
   D188       3.13711  -0.00000  -0.00008   0.00001  -0.00007   3.13703
   D189      -0.98711   0.00000  -0.00007   0.00004  -0.00003  -0.98713
   D190       1.09505   0.00000  -0.00006   0.00001  -0.00005   1.09500
   D191       1.02171  -0.00000  -0.00009   0.00003  -0.00006   1.02164
   D192      -3.10251   0.00000  -0.00008   0.00006  -0.00001  -3.10252
   D193      -1.02035  -0.00000  -0.00007   0.00003  -0.00004  -1.02038
   D194      -1.04516  -0.00001  -0.00008  -0.00000  -0.00009  -1.04525
   D195       1.11382   0.00000  -0.00007   0.00004  -0.00004   1.11378
   D196      -3.08721  -0.00000  -0.00007   0.00000  -0.00006  -3.08727
   D197      -3.06665  -0.00000   0.00003   0.00019   0.00021  -3.06643
   D198      -0.91685  -0.00000   0.00000   0.00020   0.00021  -0.91664
   D199       1.08689  -0.00000   0.00002   0.00017   0.00019   1.08708
   D200       1.02977   0.00000   0.00000   0.00022   0.00022   1.02999
   D201      -3.10362   0.00001  -0.00002   0.00024   0.00022  -3.10340
   D202      -1.09988   0.00000  -0.00000   0.00020   0.00020  -1.09968
   D203      -1.02909  -0.00000   0.00002   0.00015   0.00017  -1.02893
   D204       1.12071  -0.00000  -0.00001   0.00017   0.00016   1.12087
   D205       3.12444  -0.00000   0.00001   0.00013   0.00014   3.12459
   D206       1.11441  -0.00000  -0.00002  -0.00016  -0.00017   1.11423
   D207      -0.98896  -0.00000  -0.00002  -0.00012  -0.00014  -0.98910
   D208      -3.07942  -0.00000  -0.00000  -0.00014  -0.00015  -3.07956
   D209      -3.01724  -0.00000  -0.00002  -0.00015  -0.00017  -3.01742
   D210       1.16258  -0.00000  -0.00002  -0.00012  -0.00014   1.16244
   D211      -0.92788  -0.00000  -0.00001  -0.00014  -0.00015  -0.92803
   D212      -0.96109   0.00000  -0.00003  -0.00009  -0.00012  -0.96121
   D213      -3.06445   0.00000  -0.00003  -0.00006  -0.00009  -3.06454
   D214       1.12827   0.00000  -0.00002  -0.00008  -0.00009   1.12818
   D215       1.01505  -0.00000   0.00007  -0.00001   0.00006   1.01511
   D216      -3.12565  -0.00000   0.00006  -0.00001   0.00005  -3.12560
   D217      -1.12993  -0.00000   0.00009  -0.00004   0.00004  -1.12989
   D218      -1.14031   0.00000   0.00009   0.00000   0.00010  -1.14021
   D219       1.00218   0.00000   0.00008   0.00001   0.00009   1.00227
   D220       2.99790   0.00000   0.00011  -0.00003   0.00008   2.99798
   D221      -3.14037   0.00000   0.00008   0.00001   0.00009  -3.14029
   D222      -0.99788   0.00000   0.00007   0.00001   0.00007  -0.99781
   D223       0.99783   0.00000   0.00010  -0.00003   0.00007   0.99790
   D224       1.03670  -0.00000   0.00008   0.00004   0.00011   1.03681
   D225      -3.11809  -0.00000   0.00008   0.00005   0.00012  -3.11797
   D226      -1.11084   0.00000   0.00010   0.00003   0.00013  -1.11071
   D227      -1.09295   0.00000   0.00008   0.00005   0.00013  -1.09282
   D228       1.03545   0.00000   0.00008   0.00006   0.00014   1.03559
   D229       3.04270   0.00000   0.00010   0.00005   0.00015   3.04285
   D230      -3.08750   0.00000   0.00006   0.00007   0.00012  -3.08737
   D231      -0.95910   0.00000   0.00006   0.00008   0.00014  -0.95897
   D232       1.04814   0.00000   0.00008   0.00007   0.00014   1.04829
   D233       1.05931  -0.00000   0.00009  -0.00008   0.00001   1.05931
   D234      -3.06666   0.00000   0.00007  -0.00006   0.00002  -3.06664
   D235      -1.01897   0.00000   0.00008  -0.00007   0.00001  -1.01896
   D236      -1.07165  -0.00000   0.00009  -0.00010  -0.00000  -1.07165
   D237       1.08557   0.00000   0.00008  -0.00007   0.00001   1.08558
   D238       3.13326  -0.00000   0.00009  -0.00009   0.00001   3.13327
   D239      -3.06831  -0.00000   0.00007  -0.00007  -0.00000  -3.06831
   D240      -0.91109   0.00000   0.00005  -0.00005   0.00001  -0.91109
   D241       1.13660   0.00000   0.00007  -0.00006   0.00001   1.13660
   D242       3.11517  -0.00000   0.00003  -0.00008  -0.00005   3.11512
   D243      -1.06966   0.00000   0.00004  -0.00007  -0.00004  -1.06969
   D244       1.03135   0.00000   0.00002  -0.00006  -0.00004   1.03131
   D245       0.96104  -0.00000   0.00004  -0.00010  -0.00006   0.96098
   D246       3.05940   0.00000   0.00005  -0.00010  -0.00005   3.05935
   D247      -1.12279   0.00000   0.00004  -0.00009  -0.00005  -1.12284
   D248      -1.08651  -0.00000   0.00003  -0.00009  -0.00006  -1.08657
   D249       1.01185  -0.00000   0.00004  -0.00008  -0.00004   1.01181
   D250       3.11285  -0.00000   0.00002  -0.00007  -0.00005   3.11280
   D251      -1.09073  -0.00000   0.00001  -0.00002  -0.00001  -1.09075
   D252       1.00074  -0.00000   0.00001  -0.00002  -0.00002   1.00072
   D253       3.10218   0.00000   0.00001  -0.00001  -0.00000   3.10217
   D254       1.08529  -0.00000  -0.00000  -0.00000  -0.00000   1.08529
   D255      -3.10642  -0.00000  -0.00000  -0.00000  -0.00001  -3.10643
   D256      -1.00498   0.00000  -0.00000   0.00001   0.00001  -1.00498
   D257       3.13708   0.00000   0.00001  -0.00001  -0.00001   3.13707
   D258      -1.05463  -0.00000   0.00000  -0.00002  -0.00001  -1.05465
   D259       1.04681   0.00000   0.00001  -0.00001   0.00000   1.04681
         Item               Value     Threshold  Converged?
 Maximum Force            0.000017     0.000450     YES
 RMS     Force            0.000002     0.000300     YES
 Maximum Displacement     0.001326     0.001800     YES
 RMS     Displacement     0.000270     0.001200     YES
 Predicted change in Energy=-1.547081D-08
 Optimization completed.
    -- Stationary point found.
                           ----------------------------
                           !   Optimized Parameters   !
                           ! (Angstroms and Degrees)  !
 --------------------------                            --------------------------
 ! Name  Definition              Value          Derivative Info.                !
 --------------------------------------------------------------------------------
 ! R1    R(1,2)                  1.5495         -DE/DX =    0.0                 !
 ! R2    R(1,29)                 1.0963         -DE/DX =    0.0                 !
 ! R3    R(1,30)                 1.0939         -DE/DX =    0.0                 !
 ! R4    R(1,31)                 1.0954         -DE/DX =    0.0                 !
 ! R5    R(2,3)                  1.5621         -DE/DX =    0.0                 !
 ! R6    R(2,17)                 1.5478         -DE/DX =    0.0                 !
 ! R7    R(2,20)                 1.5754         -DE/DX =    0.0                 !
 ! R8    R(3,4)                  1.5381         -DE/DX =    0.0                 !
 ! R9    R(3,18)                 1.541          -DE/DX =    0.0                 !
 ! R10   R(3,32)                 1.1063         -DE/DX =    0.0                 !
 ! R11   R(4,5)                  1.5572         -DE/DX =    0.0                 !
 ! R12   R(4,10)                 1.5431         -DE/DX =    0.0                 !
 ! R13   R(4,33)                 1.1007         -DE/DX =    0.0                 !
 ! R14   R(5,6)                  1.5747         -DE/DX =    0.0                 !
 ! R15   R(5,16)                 1.551          -DE/DX =    0.0                 !
 ! R16   R(5,34)                 1.105          -DE/DX =    0.0                 !
 ! R17   R(6,7)                  1.5573         -DE/DX =    0.0                 !
 ! R18   R(6,8)                  1.5403         -DE/DX =    0.0                 !
 ! R19   R(6,15)                 1.5668         -DE/DX =    0.0                 !
 ! R20   R(7,35)                 1.0941         -DE/DX =    0.0                 !
 ! R21   R(7,36)                 1.0954         -DE/DX =    0.0                 !
 ! R22   R(7,37)                 1.0956         -DE/DX =    0.0                 !
 ! R23   R(8,9)                  1.3455         -DE/DX =    0.0                 !
 ! R24   R(8,11)                 1.5214         -DE/DX =    0.0                 !
 ! R25   R(9,10)                 1.5055         -DE/DX =    0.0                 !
 ! R26   R(9,38)                 1.0911         -DE/DX =    0.0                 !
 ! R27   R(10,39)                1.0996         -DE/DX =    0.0                 !
 ! R28   R(10,40)                1.1044         -DE/DX =    0.0                 !
 ! R29   R(11,12)                1.5368         -DE/DX =    0.0                 !
 ! R30   R(11,41)                1.0987         -DE/DX =    0.0                 !
 ! R31   R(11,42)                1.1001         -DE/DX =    0.0                 !
 ! R32   R(12,13)                1.47           -DE/DX =    0.0                 !
 ! R33   R(12,14)                1.5238         -DE/DX =    0.0                 !
 ! R34   R(12,43)                1.1014         -DE/DX =    0.0                 !
 ! R35   R(13,44)                0.9786         -DE/DX =    0.0                 !
 ! R36   R(14,15)                1.5407         -DE/DX =    0.0                 !
 ! R37   R(14,45)                1.0966         -DE/DX =    0.0                 !
 ! R38   R(14,46)                1.0977         -DE/DX =    0.0                 !
 ! R39   R(15,47)                1.0966         -DE/DX =    0.0                 !
 ! R40   R(15,48)                1.1005         -DE/DX =    0.0                 !
 ! R41   R(16,17)                1.5484         -DE/DX =    0.0                 !
 ! R42   R(16,49)                1.0976         -DE/DX =    0.0                 !
 ! R43   R(16,50)                1.0965         -DE/DX =    0.0                 !
 ! R44   R(17,51)                1.1012         -DE/DX =    0.0                 !
 ! R45   R(17,52)                1.0957         -DE/DX =    0.0                 !
 ! R46   R(18,19)                1.5586         -DE/DX =    0.0                 !
 ! R47   R(18,53)                1.0985         -DE/DX =    0.0                 !
 ! R48   R(18,54)                1.0958         -DE/DX =    0.0                 !
 ! R49   R(19,20)                1.5735         -DE/DX =    0.0                 !
 ! R50   R(19,55)                1.098          -DE/DX =    0.0                 !
 ! R51   R(19,56)                1.0955         -DE/DX =    0.0                 !
 ! R52   R(20,21)                1.5565         -DE/DX =    0.0                 !
 ! R53   R(20,57)                1.1041         -DE/DX =    0.0                 !
 ! R54   R(21,22)                1.5563         -DE/DX =    0.0                 !
 ! R55   R(21,28)                1.543          -DE/DX =    0.0                 !
 ! R56   R(21,58)                1.1011         -DE/DX =    0.0                 !
 ! R57   R(22,23)                1.5466         -DE/DX =    0.0                 !
 ! R58   R(22,59)                1.0966         -DE/DX =    0.0                 !
 ! R59   R(22,60)                1.1021         -DE/DX =    0.0                 !
 ! R60   R(23,24)                1.5451         -DE/DX =    0.0                 !
 ! R61   R(23,61)                1.0992         -DE/DX =    0.0                 !
 ! R62   R(23,62)                1.0985         -DE/DX =    0.0                 !
 ! R63   R(24,25)                1.5491         -DE/DX =    0.0                 !
 ! R64   R(24,63)                1.1019         -DE/DX =    0.0                 !
 ! R65   R(24,64)                1.1001         -DE/DX =    0.0                 !
 ! R66   R(25,26)                1.5422         -DE/DX =    0.0                 !
 ! R67   R(25,27)                1.543          -DE/DX =    0.0                 !
 ! R68   R(25,65)                1.1014         -DE/DX =    0.0                 !
 ! R69   R(26,66)                1.0973         -DE/DX =    0.0                 !
 ! R70   R(26,67)                1.0959         -DE/DX =    0.0                 !
 ! R71   R(26,68)                1.0991         -DE/DX =    0.0                 !
 ! R72   R(27,69)                1.0988         -DE/DX =    0.0                 !
 ! R73   R(27,70)                1.0974         -DE/DX =    0.0                 !
 ! R74   R(27,71)                1.0972         -DE/DX =    0.0                 !
 ! R75   R(28,72)                1.0931         -DE/DX =    0.0                 !
 ! R76   R(28,73)                1.0987         -DE/DX =    0.0                 !
 ! R77   R(28,74)                1.0954         -DE/DX =    0.0                 !
 ! A1    A(2,1,29)             110.5363         -DE/DX =    0.0                 !
 ! A2    A(2,1,30)             112.1638         -DE/DX =    0.0                 !
 ! A3    A(2,1,31)             111.7139         -DE/DX =    0.0                 !
 ! A4    A(29,1,30)            107.3541         -DE/DX =    0.0                 !
 ! A5    A(29,1,31)            107.471          -DE/DX =    0.0                 !
 ! A6    A(30,1,31)            107.3682         -DE/DX =    0.0                 !
 ! A7    A(1,2,3)              112.4318         -DE/DX =    0.0                 !
 ! A8    A(1,2,17)             110.8687         -DE/DX =    0.0                 !
 ! A9    A(1,2,20)             110.208          -DE/DX =    0.0                 !
 ! A10   A(3,2,17)             106.3121         -DE/DX =    0.0                 !
 ! A11   A(3,2,20)             100.0168         -DE/DX =    0.0                 !
 ! A12   A(17,2,20)            116.521          -DE/DX =    0.0                 !
 ! A13   A(2,3,4)              115.2187         -DE/DX =    0.0                 !
 ! A14   A(2,3,18)             104.3242         -DE/DX =    0.0                 !
 ! A15   A(2,3,32)             105.1459         -DE/DX =    0.0                 !
 ! A16   A(4,3,18)             118.762          -DE/DX =    0.0                 !
 ! A17   A(4,3,32)             105.8004         -DE/DX =    0.0                 !
 ! A18   A(18,3,32)            106.5446         -DE/DX =    0.0                 !
 ! A19   A(3,4,5)              109.6541         -DE/DX =    0.0                 !
 ! A20   A(3,4,10)             110.8337         -DE/DX =    0.0                 !
 ! A21   A(3,4,33)             109.3198         -DE/DX =    0.0                 !
 ! A22   A(5,4,10)             109.7817         -DE/DX =    0.0                 !
 ! A23   A(5,4,33)             109.1964         -DE/DX =    0.0                 !
 ! A24   A(10,4,33)            108.02           -DE/DX =    0.0                 !
 ! A25   A(4,5,6)              112.5743         -DE/DX =    0.0                 !
 ! A26   A(4,5,16)             111.9646         -DE/DX =    0.0                 !
 ! A27   A(4,5,34)             105.6006         -DE/DX =    0.0                 !
 ! A28   A(6,5,16)             113.3021         -DE/DX =    0.0                 !
 ! A29   A(6,5,34)             105.7658         -DE/DX =    0.0                 !
 ! A30   A(16,5,34)            106.9545         -DE/DX =    0.0                 !
 ! A31   A(5,6,7)              111.6246         -DE/DX =    0.0                 !
 ! A32   A(5,6,8)              110.0578         -DE/DX =    0.0                 !
 ! A33   A(5,6,15)             108.4847         -DE/DX =    0.0                 !
 ! A34   A(7,6,8)              108.8759         -DE/DX =    0.0                 !
 ! A35   A(7,6,15)             109.5022         -DE/DX =    0.0                 !
 ! A36   A(8,6,15)             108.2323         -DE/DX =    0.0                 !
 ! A37   A(6,7,35)             111.3417         -DE/DX =    0.0                 !
 ! A38   A(6,7,36)             110.9837         -DE/DX =    0.0                 !
 ! A39   A(6,7,37)             111.2449         -DE/DX =    0.0                 !
 ! A40   A(35,7,36)            107.3902         -DE/DX =    0.0                 !
 ! A41   A(35,7,37)            107.285          -DE/DX =    0.0                 !
 ! A42   A(36,7,37)            108.4211         -DE/DX =    0.0                 !
 ! A43   A(6,8,9)              123.0424         -DE/DX =    0.0                 !
 ! A44   A(6,8,11)             116.4471         -DE/DX =    0.0                 !
 ! A45   A(9,8,11)             120.5103         -DE/DX =    0.0                 !
 ! A46   A(8,9,10)             125.1219         -DE/DX =    0.0                 !
 ! A47   A(8,9,38)             118.6856         -DE/DX =    0.0                 !
 ! A48   A(10,9,38)            116.1916         -DE/DX =    0.0                 !
 ! A49   A(4,10,9)             113.0617         -DE/DX =    0.0                 !
 ! A50   A(4,10,39)            109.8773         -DE/DX =    0.0                 !
 ! A51   A(4,10,40)            109.1665         -DE/DX =    0.0                 !
 ! A52   A(9,10,39)            109.5298         -DE/DX =    0.0                 !
 ! A53   A(9,10,40)            109.4521         -DE/DX =    0.0                 !
 ! A54   A(39,10,40)           105.4723         -DE/DX =    0.0                 !
 ! A55   A(8,11,12)            112.0707         -DE/DX =    0.0                 !
 ! A56   A(8,11,41)            109.4689         -DE/DX =    0.0                 !
 ! A57   A(8,11,42)            110.8888         -DE/DX =    0.0                 !
 ! A58   A(12,11,41)           110.3377         -DE/DX =    0.0                 !
 ! A59   A(12,11,42)           107.0622         -DE/DX =    0.0                 !
 ! A60   A(41,11,42)           106.8637         -DE/DX =    0.0                 !
 ! A61   A(11,12,13)           111.3905         -DE/DX =    0.0                 !
 ! A62   A(11,12,14)           110.6462         -DE/DX =    0.0                 !
 ! A63   A(11,12,43)           109.5756         -DE/DX =    0.0                 !
 ! A64   A(13,12,14)           106.6764         -DE/DX =    0.0                 !
 ! A65   A(13,12,43)           108.7944         -DE/DX =    0.0                 !
 ! A66   A(14,12,43)           109.6966         -DE/DX =    0.0                 !
 ! A67   A(12,13,44)           111.0942         -DE/DX =    0.0                 !
 ! A68   A(12,14,15)           110.7555         -DE/DX =    0.0                 !
 ! A69   A(12,14,45)           109.4547         -DE/DX =    0.0                 !
 ! A70   A(12,14,46)           108.4531         -DE/DX =    0.0                 !
 ! A71   A(15,14,45)           110.1367         -DE/DX =    0.0                 !
 ! A72   A(15,14,46)           111.1974         -DE/DX =    0.0                 !
 ! A73   A(45,14,46)           106.7386         -DE/DX =    0.0                 !
 ! A74   A(6,15,14)            114.6802         -DE/DX =    0.0                 !
 ! A75   A(6,15,47)            109.2526         -DE/DX =    0.0                 !
 ! A76   A(6,15,48)            108.0693         -DE/DX =    0.0                 !
 ! A77   A(14,15,47)           109.0453         -DE/DX =    0.0                 !
 ! A78   A(14,15,48)           108.7706         -DE/DX =    0.0                 !
 ! A79   A(47,15,48)           106.7261         -DE/DX =    0.0                 !
 ! A80   A(5,16,17)            114.1396         -DE/DX =    0.0                 !
 ! A81   A(5,16,49)            109.5412         -DE/DX =    0.0                 !
 ! A82   A(5,16,50)            109.7783         -DE/DX =    0.0                 !
 ! A83   A(17,16,49)           108.3931         -DE/DX =    0.0                 !
 ! A84   A(17,16,50)           108.5268         -DE/DX =    0.0                 !
 ! A85   A(49,16,50)           106.1462         -DE/DX =    0.0                 !
 ! A86   A(2,17,16)            111.7453         -DE/DX =    0.0                 !
 ! A87   A(2,17,51)            108.5851         -DE/DX =    0.0                 !
 ! A88   A(2,17,52)            111.6716         -DE/DX =    0.0                 !
 ! A89   A(16,17,51)           109.5472         -DE/DX =    0.0                 !
 ! A90   A(16,17,52)           108.457          -DE/DX =    0.0                 !
 ! A91   A(51,17,52)           106.6963         -DE/DX =    0.0                 !
 ! A92   A(3,18,19)            103.7765         -DE/DX =    0.0                 !
 ! A93   A(3,18,53)            110.6634         -DE/DX =    0.0                 !
 ! A94   A(3,18,54)            112.3454         -DE/DX =    0.0                 !
 ! A95   A(19,18,53)           111.1663         -DE/DX =    0.0                 !
 ! A96   A(19,18,54)           112.0626         -DE/DX =    0.0                 !
 ! A97   A(53,18,54)           106.9075         -DE/DX =    0.0                 !
 ! A98   A(18,19,20)           107.2413         -DE/DX =    0.0                 !
 ! A99   A(18,19,55)           110.8388         -DE/DX =    0.0                 !
 ! A100  A(18,19,56)           111.1736         -DE/DX =    0.0                 !
 ! A101  A(20,19,55)           110.1402         -DE/DX =    0.0                 !
 ! A102  A(20,19,56)           110.8919         -DE/DX =    0.0                 !
 ! A103  A(55,19,56)           106.5942         -DE/DX =    0.0                 !
 ! A104  A(2,20,19)            103.2845         -DE/DX =    0.0                 !
 ! A105  A(2,20,21)            119.5286         -DE/DX =    0.0                 !
 ! A106  A(2,20,57)            106.1674         -DE/DX =    0.0                 !
 ! A107  A(19,20,21)           112.3244         -DE/DX =    0.0                 !
 ! A108  A(19,20,57)           108.1484         -DE/DX =    0.0                 !
 ! A109  A(21,20,57)           106.8276         -DE/DX =    0.0                 !
 ! A110  A(20,21,22)           109.6259         -DE/DX =    0.0                 !
 ! A111  A(20,21,28)           113.1402         -DE/DX =    0.0                 !
 ! A112  A(20,21,58)           107.4722         -DE/DX =    0.0                 !
 ! A113  A(22,21,28)           110.4            -DE/DX =    0.0                 !
 ! A114  A(22,21,58)           107.8819         -DE/DX =    0.0                 !
 ! A115  A(28,21,58)           108.1342         -DE/DX =    0.0                 !
 ! A116  A(21,22,23)           116.5323         -DE/DX =    0.0                 !
 ! A117  A(21,22,59)           109.0774         -DE/DX =    0.0                 !
 ! A118  A(21,22,60)           108.0258         -DE/DX =    0.0                 !
 ! A119  A(23,22,59)           108.4619         -DE/DX =    0.0                 !
 ! A120  A(23,22,60)           108.2316         -DE/DX =    0.0                 !
 ! A121  A(59,22,60)           106.0153         -DE/DX =    0.0                 !
 ! A122  A(22,23,24)           115.7191         -DE/DX =    0.0                 !
 ! A123  A(22,23,61)           107.9068         -DE/DX =    0.0                 !
 ! A124  A(22,23,62)           109.7959         -DE/DX =    0.0                 !
 ! A125  A(24,23,61)           109.2939         -DE/DX =    0.0                 !
 ! A126  A(24,23,62)           108.2675         -DE/DX =    0.0                 !
 ! A127  A(61,23,62)           105.3649         -DE/DX =    0.0                 !
 ! A128  A(23,24,25)           116.2909         -DE/DX =    0.0                 !
 ! A129  A(23,24,63)           108.3742         -DE/DX =    0.0                 !
 ! A130  A(23,24,64)           109.2672         -DE/DX =    0.0                 !
 ! A131  A(25,24,63)           108.0957         -DE/DX =    0.0                 !
 ! A132  A(25,24,64)           108.3822         -DE/DX =    0.0                 !
 ! A133  A(63,24,64)           105.9437         -DE/DX =    0.0                 !
 ! A134  A(24,25,26)           112.331          -DE/DX =    0.0                 !
 ! A135  A(24,25,27)           110.1502         -DE/DX =    0.0                 !
 ! A136  A(24,25,65)           108.2505         -DE/DX =    0.0                 !
 ! A137  A(26,25,27)           110.4668         -DE/DX =    0.0                 !
 ! A138  A(26,25,65)           107.9342         -DE/DX =    0.0                 !
 ! A139  A(27,25,65)           107.5397         -DE/DX =    0.0                 !
 ! A140  A(25,26,66)           110.796          -DE/DX =    0.0                 !
 ! A141  A(25,26,67)           112.0665         -DE/DX =    0.0                 !
 ! A142  A(25,26,68)           110.563          -DE/DX =    0.0                 !
 ! A143  A(66,26,67)           107.6242         -DE/DX =    0.0                 !
 ! A144  A(66,26,68)           107.7524         -DE/DX =    0.0                 !
 ! A145  A(67,26,68)           107.8697         -DE/DX =    0.0                 !
 ! A146  A(25,27,69)           110.6697         -DE/DX =    0.0                 !
 ! A147  A(25,27,70)           111.2802         -DE/DX =    0.0                 !
 ! A148  A(25,27,71)           111.1912         -DE/DX =    0.0                 !
 ! A149  A(69,27,70)           107.7944         -DE/DX =    0.0                 !
 ! A150  A(69,27,71)           107.7864         -DE/DX =    0.0                 !
 ! A151  A(70,27,71)           107.9688         -DE/DX =    0.0                 !
 ! A152  A(21,28,72)           111.9891         -DE/DX =    0.0                 !
 ! A153  A(21,28,73)           110.8039         -DE/DX =    0.0                 !
 ! A154  A(21,28,74)           111.1971         -DE/DX =    0.0                 !
 ! A155  A(72,28,73)           107.8862         -DE/DX =    0.0                 !
 ! A156  A(72,28,74)           107.0437         -DE/DX =    0.0                 !
 ! A157  A(73,28,74)           107.721          -DE/DX =    0.0                 !
 ! D1    D(29,1,2,3)          -177.2637         -DE/DX =    0.0                 !
 ! D2    D(29,1,2,17)          -58.4099         -DE/DX =    0.0                 !
 ! D3    D(29,1,2,20)           72.0976         -DE/DX =    0.0                 !
 ! D4    D(30,1,2,3)           -57.4931         -DE/DX =    0.0                 !
 ! D5    D(30,1,2,17)           61.3608         -DE/DX =    0.0                 !
 ! D6    D(30,1,2,20)         -168.1317         -DE/DX =    0.0                 !
 ! D7    D(31,1,2,3)            63.1152         -DE/DX =    0.0                 !
 ! D8    D(31,1,2,17)         -178.0309         -DE/DX =    0.0                 !
 ! D9    D(31,1,2,20)          -47.5234         -DE/DX =    0.0                 !
 ! D10   D(1,2,3,4)             61.5192         -DE/DX =    0.0                 !
 ! D11   D(1,2,3,18)           -70.4853         -DE/DX =    0.0                 !
 ! D12   D(1,2,3,32)           177.5774         -DE/DX =    0.0                 !
 ! D13   D(17,2,3,4)           -59.9718         -DE/DX =    0.0                 !
 ! D14   D(17,2,3,18)          168.0238         -DE/DX =    0.0                 !
 ! D15   D(17,2,3,32)           56.0864         -DE/DX =    0.0                 !
 ! D16   D(20,2,3,4)           178.4175         -DE/DX =    0.0                 !
 ! D17   D(20,2,3,18)           46.413          -DE/DX =    0.0                 !
 ! D18   D(20,2,3,32)          -65.5244         -DE/DX =    0.0                 !
 ! D19   D(1,2,17,16)          -66.1891         -DE/DX =    0.0                 !
 ! D20   D(1,2,17,51)          172.8702         -DE/DX =    0.0                 !
 ! D21   D(1,2,17,52)           55.4975         -DE/DX =    0.0                 !
 ! D22   D(3,2,17,16)           56.2954         -DE/DX =    0.0                 !
 ! D23   D(3,2,17,51)          -64.6454         -DE/DX =    0.0                 !
 ! D24   D(3,2,17,52)          177.9819         -DE/DX =    0.0                 !
 ! D25   D(20,2,17,16)         166.6965         -DE/DX =    0.0                 !
 ! D26   D(20,2,17,51)          45.7557         -DE/DX =    0.0                 !
 ! D27   D(20,2,17,52)         -71.6169         -DE/DX =    0.0                 !
 ! D28   D(1,2,20,19)           79.1774         -DE/DX =    0.0                 !
 ! D29   D(1,2,20,21)          -46.4346         -DE/DX =    0.0                 !
 ! D30   D(1,2,20,57)         -167.1399         -DE/DX =    0.0                 !
 ! D31   D(3,2,20,19)          -39.3724         -DE/DX =    0.0                 !
 ! D32   D(3,2,20,21)         -164.9844         -DE/DX =    0.0                 !
 ! D33   D(3,2,20,57)           74.3103         -DE/DX =    0.0                 !
 ! D34   D(17,2,20,19)        -153.383          -DE/DX =    0.0                 !
 ! D35   D(17,2,20,21)          81.005          -DE/DX =    0.0                 !
 ! D36   D(17,2,20,57)         -39.7003         -DE/DX =    0.0                 !
 ! D37   D(2,3,4,5)             56.8506         -DE/DX =    0.0                 !
 ! D38   D(2,3,4,10)           178.2113         -DE/DX =    0.0                 !
 ! D39   D(2,3,4,33)           -62.8318         -DE/DX =    0.0                 !
 ! D40   D(18,3,4,5)          -178.3665         -DE/DX =    0.0                 !
 ! D41   D(18,3,4,10)          -57.0058         -DE/DX =    0.0                 !
 ! D42   D(18,3,4,33)           61.951          -DE/DX =    0.0                 !
 ! D43   D(32,3,4,5)           -58.834          -DE/DX =    0.0                 !
 ! D44   D(32,3,4,10)           62.5267         -DE/DX =    0.0                 !
 ! D45   D(32,3,4,33)         -178.5164         -DE/DX =    0.0                 !
 ! D46   D(2,3,18,19)          -34.6674         -DE/DX =    0.0                 !
 ! D47   D(2,3,18,53)           84.6602         -DE/DX =    0.0                 !
 ! D48   D(2,3,18,54)         -155.928          -DE/DX =    0.0                 !
 ! D49   D(4,3,18,19)         -164.5929         -DE/DX =    0.0                 !
 ! D50   D(4,3,18,53)          -45.2653         -DE/DX =    0.0                 !
 ! D51   D(4,3,18,54)           74.1465         -DE/DX =    0.0                 !
 ! D52   D(32,3,18,19)          76.2585         -DE/DX =    0.0                 !
 ! D53   D(32,3,18,53)        -164.4139         -DE/DX =    0.0                 !
 ! D54   D(32,3,18,54)         -45.0021         -DE/DX =    0.0                 !
 ! D55   D(3,4,5,6)           -177.967          -DE/DX =    0.0                 !
 ! D56   D(3,4,5,16)           -48.9464         -DE/DX =    0.0                 !
 ! D57   D(3,4,5,34)            67.0984         -DE/DX =    0.0                 !
 ! D58   D(10,4,5,6)            60.0414         -DE/DX =    0.0                 !
 ! D59   D(10,4,5,16)         -170.938          -DE/DX =    0.0                 !
 ! D60   D(10,4,5,34)          -54.8932         -DE/DX =    0.0                 !
 ! D61   D(33,4,5,6)           -58.209          -DE/DX =    0.0                 !
 ! D62   D(33,4,5,16)           70.8116         -DE/DX =    0.0                 !
 ! D63   D(33,4,5,34)         -173.1437         -DE/DX =    0.0                 !
 ! D64   D(3,4,10,9)          -163.6832         -DE/DX =    0.0                 !
 ! D65   D(3,4,10,39)           73.6142         -DE/DX =    0.0                 !
 ! D66   D(3,4,10,40)          -41.5989         -DE/DX =    0.0                 !
 ! D67   D(5,4,10,9)           -42.3977         -DE/DX =    0.0                 !
 ! D68   D(5,4,10,39)         -165.1003         -DE/DX =    0.0                 !
 ! D69   D(5,4,10,40)           79.6866         -DE/DX =    0.0                 !
 ! D70   D(33,4,10,9)           76.5788         -DE/DX =    0.0                 !
 ! D71   D(33,4,10,39)         -46.1237         -DE/DX =    0.0                 !
 ! D72   D(33,4,10,40)        -161.3369         -DE/DX =    0.0                 !
 ! D73   D(4,5,6,7)             76.2881         -DE/DX =    0.0                 !
 ! D74   D(4,5,6,8)            -44.7243         -DE/DX =    0.0                 !
 ! D75   D(4,5,6,15)          -162.9695         -DE/DX =    0.0                 !
 ! D76   D(16,5,6,7)           -52.0357         -DE/DX =    0.0                 !
 ! D77   D(16,5,6,8)          -173.0481         -DE/DX =    0.0                 !
 ! D78   D(16,5,6,15)           68.7066         -DE/DX =    0.0                 !
 ! D79   D(34,5,6,7)          -168.8772         -DE/DX =    0.0                 !
 ! D80   D(34,5,6,8)            70.1103         -DE/DX =    0.0                 !
 ! D81   D(34,5,6,15)          -48.1349         -DE/DX =    0.0                 !
 ! D82   D(4,5,16,17)           49.9032         -DE/DX =    0.0                 !
 ! D83   D(4,5,16,49)          171.6366         -DE/DX =    0.0                 !
 ! D84   D(4,5,16,50)          -72.182          -DE/DX =    0.0                 !
 ! D85   D(6,5,16,17)          178.5411         -DE/DX =    0.0                 !
 ! D86   D(6,5,16,49)          -59.7255         -DE/DX =    0.0                 !
 ! D87   D(6,5,16,50)           56.4559         -DE/DX =    0.0                 !
 ! D88   D(34,5,16,17)         -65.3176         -DE/DX =    0.0                 !
 ! D89   D(34,5,16,49)          56.4158         -DE/DX =    0.0                 !
 ! D90   D(34,5,16,50)         172.5972         -DE/DX =    0.0                 !
 ! D91   D(5,6,7,35)          -171.4828         -DE/DX =    0.0                 !
 ! D92   D(5,6,7,36)           -51.9099         -DE/DX =    0.0                 !
 ! D93   D(5,6,7,37)            68.9026         -DE/DX =    0.0                 !
 ! D94   D(8,6,7,35)           -49.7848         -DE/DX =    0.0                 !
 ! D95   D(8,6,7,36)            69.7881         -DE/DX =    0.0                 !
 ! D96   D(8,6,7,37)          -169.3994         -DE/DX =    0.0                 !
 ! D97   D(15,6,7,35)           68.3708         -DE/DX =    0.0                 !
 ! D98   D(15,6,7,36)         -172.0563         -DE/DX =    0.0                 !
 ! D99   D(15,6,7,37)          -51.2438         -DE/DX =    0.0                 !
 ! D100  D(5,6,8,9)             14.0732         -DE/DX =    0.0                 !
 ! D101  D(5,6,8,11)          -166.0521         -DE/DX =    0.0                 !
 ! D102  D(7,6,8,9)           -108.5731         -DE/DX =    0.0                 !
 ! D103  D(7,6,8,11)            71.3016         -DE/DX =    0.0                 !
 ! D104  D(15,6,8,9)           132.4738         -DE/DX =    0.0                 !
 ! D105  D(15,6,8,11)          -47.6515         -DE/DX =    0.0                 !
 ! D106  D(5,6,15,14)          168.8459         -DE/DX =    0.0                 !
 ! D107  D(5,6,15,47)          -68.4098         -DE/DX =    0.0                 !
 ! D108  D(5,6,15,48)           47.3508         -DE/DX =    0.0                 !
 ! D109  D(7,6,15,14)          -69.107          -DE/DX =    0.0                 !
 ! D110  D(7,6,15,47)           53.6374         -DE/DX =    0.0                 !
 ! D111  D(7,6,15,48)          169.398          -DE/DX =    0.0                 !
 ! D112  D(8,6,15,14)           49.4488         -DE/DX =    0.0                 !
 ! D113  D(8,6,15,47)          172.1932         -DE/DX =    0.0                 !
 ! D114  D(8,6,15,48)          -72.0462         -DE/DX =    0.0                 !
 ! D115  D(6,8,9,10)             1.8814         -DE/DX =    0.0                 !
 ! D116  D(6,8,9,38)          -178.4943         -DE/DX =    0.0                 !
 ! D117  D(11,8,9,10)         -177.9884         -DE/DX =    0.0                 !
 ! D118  D(11,8,9,38)            1.6359         -DE/DX =    0.0                 !
 ! D119  D(6,8,11,12)           51.9906         -DE/DX =    0.0                 !
 ! D120  D(6,8,11,41)          174.7501         -DE/DX =    0.0                 !
 ! D121  D(6,8,11,42)          -67.5885         -DE/DX =    0.0                 !
 ! D122  D(9,8,11,12)         -128.1313         -DE/DX =    0.0                 !
 ! D123  D(9,8,11,41)           -5.3719         -DE/DX =    0.0                 !
 ! D124  D(9,8,11,42)          112.2896         -DE/DX =    0.0                 !
 ! D125  D(8,9,10,4)            12.9179         -DE/DX =    0.0                 !
 ! D126  D(8,9,10,39)          135.8136         -DE/DX =    0.0                 !
 ! D127  D(8,9,10,40)         -109.0063         -DE/DX =    0.0                 !
 ! D128  D(38,9,10,4)         -166.7148         -DE/DX =    0.0                 !
 ! D129  D(38,9,10,39)         -43.8191         -DE/DX =    0.0                 !
 ! D130  D(38,9,10,40)          71.361          -DE/DX =    0.0                 !
 ! D131  D(8,11,12,13)        -172.9488         -DE/DX =    0.0                 !
 ! D132  D(8,11,12,14)         -54.463          -DE/DX =    0.0                 !
 ! D133  D(8,11,12,43)          66.6185         -DE/DX =    0.0                 !
 ! D134  D(41,11,12,13)         64.7853         -DE/DX =    0.0                 !
 ! D135  D(41,11,12,14)       -176.7289         -DE/DX =    0.0                 !
 ! D136  D(41,11,12,43)        -55.6475         -DE/DX =    0.0                 !
 ! D137  D(42,11,12,13)        -51.1521         -DE/DX =    0.0                 !
 ! D138  D(42,11,12,14)         67.3337         -DE/DX =    0.0                 !
 ! D139  D(42,11,12,43)       -171.5849         -DE/DX =    0.0                 !
 ! D140  D(11,12,13,44)        -61.3084         -DE/DX =    0.0                 !
 ! D141  D(14,12,13,44)        177.8511         -DE/DX =    0.0                 !
 ! D142  D(43,12,13,44)         59.5828         -DE/DX =    0.0                 !
 ! D143  D(11,12,14,15)         56.4287         -DE/DX =    0.0                 !
 ! D144  D(11,12,14,45)        178.0506         -DE/DX =    0.0                 !
 ! D145  D(11,12,14,46)        -65.8538         -DE/DX =    0.0                 !
 ! D146  D(13,12,14,15)        177.7437         -DE/DX =    0.0                 !
 ! D147  D(13,12,14,45)        -60.6344         -DE/DX =    0.0                 !
 ! D148  D(13,12,14,46)         55.4611         -DE/DX =    0.0                 !
 ! D149  D(43,12,14,15)        -64.5811         -DE/DX =    0.0                 !
 ! D150  D(43,12,14,45)         57.0408         -DE/DX =    0.0                 !
 ! D151  D(43,12,14,46)        173.1364         -DE/DX =    0.0                 !
 ! D152  D(12,14,15,6)         -55.9823         -DE/DX =    0.0                 !
 ! D153  D(12,14,15,47)       -178.8384         -DE/DX =    0.0                 !
 ! D154  D(12,14,15,48)         65.1287         -DE/DX =    0.0                 !
 ! D155  D(45,14,15,6)        -177.2023         -DE/DX =    0.0                 !
 ! D156  D(45,14,15,47)         59.9416         -DE/DX =    0.0                 !
 ! D157  D(45,14,15,48)        -56.0914         -DE/DX =    0.0                 !
 ! D158  D(46,14,15,6)          64.6839         -DE/DX =    0.0                 !
 ! D159  D(46,14,15,47)        -58.1722         -DE/DX =    0.0                 !
 ! D160  D(46,14,15,48)       -174.2051         -DE/DX =    0.0                 !
 ! D161  D(5,16,17,2)          -54.792          -DE/DX =    0.0                 !
 ! D162  D(5,16,17,51)          65.5878         -DE/DX =    0.0                 !
 ! D163  D(5,16,17,52)        -178.3145         -DE/DX =    0.0                 !
 ! D164  D(49,16,17,2)        -177.1557         -DE/DX =    0.0                 !
 ! D165  D(49,16,17,51)        -56.7759         -DE/DX =    0.0                 !
 ! D166  D(49,16,17,52)         59.3218         -DE/DX =    0.0                 !
 ! D167  D(50,16,17,2)          67.9774         -DE/DX =    0.0                 !
 ! D168  D(50,16,17,51)       -171.6428         -DE/DX =    0.0                 !
 ! D169  D(50,16,17,52)        -55.5451         -DE/DX =    0.0                 !
 ! D170  D(3,18,19,20)           9.1203         -DE/DX =    0.0                 !
 ! D171  D(3,18,19,55)         129.3775         -DE/DX =    0.0                 !
 ! D172  D(3,18,19,56)        -112.2539         -DE/DX =    0.0                 !
 ! D173  D(53,18,19,20)       -109.8628         -DE/DX =    0.0                 !
 ! D174  D(53,18,19,55)         10.3944         -DE/DX =    0.0                 !
 ! D175  D(53,18,19,56)        128.763          -DE/DX =    0.0                 !
 ! D176  D(54,18,19,20)        130.5703         -DE/DX =    0.0                 !
 ! D177  D(54,18,19,55)       -109.1725         -DE/DX =    0.0                 !
 ! D178  D(54,18,19,56)          9.1961         -DE/DX =    0.0                 !
 ! D179  D(18,19,20,2)          19.2808         -DE/DX =    0.0                 !
 ! D180  D(18,19,20,21)        149.4009         -DE/DX =    0.0                 !
 ! D181  D(18,19,20,57)        -92.9582         -DE/DX =    0.0                 !
 ! D182  D(55,19,20,2)        -101.4198         -DE/DX =    0.0                 !
 ! D183  D(55,19,20,21)         28.7002         -DE/DX =    0.0                 !
 ! D184  D(55,19,20,57)        146.3412         -DE/DX =    0.0                 !
 ! D185  D(56,19,20,2)         140.8321         -DE/DX =    0.0                 !
 ! D186  D(56,19,20,21)        -89.0479         -DE/DX =    0.0                 !
 ! D187  D(56,19,20,57)         28.5931         -DE/DX =    0.0                 !
 ! D188  D(2,20,21,22)         179.7429         -DE/DX =    0.0                 !
 ! D189  D(2,20,21,28)         -56.557          -DE/DX =    0.0                 !
 ! D190  D(2,20,21,58)          62.742          -DE/DX =    0.0                 !
 ! D191  D(19,20,21,22)         58.5394         -DE/DX =    0.0                 !
 ! D192  D(19,20,21,28)       -177.7605         -DE/DX =    0.0                 !
 ! D193  D(19,20,21,58)        -58.4616         -DE/DX =    0.0                 !
 ! D194  D(57,20,21,22)        -59.8832         -DE/DX =    0.0                 !
 ! D195  D(57,20,21,28)         63.8169         -DE/DX =    0.0                 !
 ! D196  D(57,20,21,58)       -176.8842         -DE/DX =    0.0                 !
 ! D197  D(20,21,22,23)       -175.706          -DE/DX =    0.0                 !
 ! D198  D(20,21,22,59)        -52.5314         -DE/DX =    0.0                 !
 ! D199  D(20,21,22,60)         62.2741         -DE/DX =    0.0                 !
 ! D200  D(28,21,22,23)         59.0013         -DE/DX =    0.0                 !
 ! D201  D(28,21,22,59)       -177.8241         -DE/DX =    0.0                 !
 ! D202  D(28,21,22,60)        -63.0186         -DE/DX =    0.0                 !
 ! D203  D(58,21,22,23)        -58.9627         -DE/DX =    0.0                 !
 ! D204  D(58,21,22,59)         64.2119         -DE/DX =    0.0                 !
 ! D205  D(58,21,22,60)        179.0174         -DE/DX =    0.0                 !
 ! D206  D(20,21,28,72)         63.8508         -DE/DX =    0.0                 !
 ! D207  D(20,21,28,73)        -56.663          -DE/DX =    0.0                 !
 ! D208  D(20,21,28,74)       -176.4375         -DE/DX =    0.0                 !
 ! D209  D(22,21,28,72)       -172.8753         -DE/DX =    0.0                 !
 ! D210  D(22,21,28,73)         66.6109         -DE/DX =    0.0                 !
 ! D211  D(22,21,28,74)        -53.1636         -DE/DX =    0.0                 !
 ! D212  D(58,21,28,72)        -55.0663         -DE/DX =    0.0                 !
 ! D213  D(58,21,28,73)       -175.5801         -DE/DX =    0.0                 !
 ! D214  D(58,21,28,74)         64.6454         -DE/DX =    0.0                 !
 ! D215  D(21,22,23,24)         58.1579         -DE/DX =    0.0                 !
 ! D216  D(21,22,23,61)       -179.0864         -DE/DX =    0.0                 !
 ! D217  D(21,22,23,62)        -64.7403         -DE/DX =    0.0                 !
 ! D218  D(59,22,23,24)        -65.3348         -DE/DX =    0.0                 !
 ! D219  D(59,22,23,61)         57.4209         -DE/DX =    0.0                 !
 ! D220  D(59,22,23,62)        171.767          -DE/DX =    0.0                 !
 ! D221  D(60,22,23,24)       -179.9302         -DE/DX =    0.0                 !
 ! D222  D(60,22,23,61)        -57.1745         -DE/DX =    0.0                 !
 ! D223  D(60,22,23,62)         57.1716         -DE/DX =    0.0                 !
 ! D224  D(22,23,24,25)         59.3984         -DE/DX =    0.0                 !
 ! D225  D(22,23,24,63)       -178.6536         -DE/DX =    0.0                 !
 ! D226  D(22,23,24,64)        -63.6467         -DE/DX =    0.0                 !
 ! D227  D(61,23,24,25)        -62.6213         -DE/DX =    0.0                 !
 ! D228  D(61,23,24,63)         59.3267         -DE/DX =    0.0                 !
 ! D229  D(61,23,24,64)        174.3336         -DE/DX =    0.0                 !
 ! D230  D(62,23,24,25)       -176.9006         -DE/DX =    0.0                 !
 ! D231  D(62,23,24,63)        -54.9527         -DE/DX =    0.0                 !
 ! D232  D(62,23,24,64)         60.0543         -DE/DX =    0.0                 !
 ! D233  D(23,24,25,26)         60.6937         -DE/DX =    0.0                 !
 ! D234  D(23,24,25,27)       -175.7067         -DE/DX =    0.0                 !
 ! D235  D(23,24,25,65)        -58.3827         -DE/DX =    0.0                 !
 ! D236  D(63,24,25,26)        -61.4009         -DE/DX =    0.0                 !
 ! D237  D(63,24,25,27)         62.1986         -DE/DX =    0.0                 !
 ! D238  D(63,24,25,65)        179.5226         -DE/DX =    0.0                 !
 ! D239  D(64,24,25,26)       -175.8015         -DE/DX =    0.0                 !
 ! D240  D(64,24,25,27)        -52.2019         -DE/DX =    0.0                 !
 ! D241  D(64,24,25,65)         65.1221         -DE/DX =    0.0                 !
 ! D242  D(24,25,26,66)        178.4862         -DE/DX =    0.0                 !
 ! D243  D(24,25,26,67)        -61.2868         -DE/DX =    0.0                 !
 ! D244  D(24,25,26,68)         59.0918         -DE/DX =    0.0                 !
 ! D245  D(27,25,26,66)         55.0635         -DE/DX =    0.0                 !
 ! D246  D(27,25,26,67)        175.2906         -DE/DX =    0.0                 !
 ! D247  D(27,25,26,68)        -64.3309         -DE/DX =    0.0                 !
 ! D248  D(65,25,26,66)        -62.2523         -DE/DX =    0.0                 !
 ! D249  D(65,25,26,67)         57.9747         -DE/DX =    0.0                 !
 ! D250  D(65,25,26,68)        178.3533         -DE/DX =    0.0                 !
 ! D251  D(24,25,27,69)        -62.4945         -DE/DX =    0.0                 !
 ! D252  D(24,25,27,70)         57.338          -DE/DX =    0.0                 !
 ! D253  D(24,25,27,71)        177.7416         -DE/DX =    0.0                 !
 ! D254  D(26,25,27,69)         62.1826         -DE/DX =    0.0                 !
 ! D255  D(26,25,27,70)       -177.9849         -DE/DX =    0.0                 !
 ! D256  D(26,25,27,71)        -57.5813         -DE/DX =    0.0                 !
 ! D257  D(65,25,27,69)        179.7415         -DE/DX =    0.0                 !
 ! D258  D(65,25,27,70)        -60.426          -DE/DX =    0.0                 !
 ! D259  D(65,25,27,71)         59.9775         -DE/DX =    0.0                 !
 --------------------------------------------------------------------------------
 Lowest energy point so far.  Saving SCF results.
 Largest change from initial coordinates is atom   66       0.050 Angstoms.
 GradGradGradGradGradGradGradGradGradGradGradGradGradGradGradGradGradGrad

 Leave Link  103 at Mon Jul 28 19:18:12 2025, MaxMem=  1073741824 cpu:               1.3 elap:               0.2
 (Enter /app/gaussian/g16/l202.exe)
 Stoichiometry    C27H46O
 Framework group  C1[X(C27H46O)]
 Deg. of freedom   216
 Full point group                 C1      NOp   1
 RotChk:  IX=0 Diff= 1.50D-14
 Largest Abelian subgroup         C1      NOp   1
 Largest concise Abelian subgroup C1      NOp   1
                         Standard orientation:                         
 ---------------------------------------------------------------------
 Center     Atomic      Atomic             Coordinates (Angstroms)
 Number     Number       Type             X           Y           Z
 ---------------------------------------------------------------------
      1          6           0       -0.994372   -0.308105    1.459480
      2          6           0       -0.734240   -0.405268   -0.064957
      3          6           0        0.100574    0.799430   -0.605151
      4          6           0        1.509402    0.942227   -0.004580
      5          6           0        2.313548   -0.370732   -0.237426
      6          6           0        3.753782   -0.318127    0.397212
      7          6           0        3.707256   -0.506138    1.942408
      8          6           0        4.422057    1.032805    0.079488
      9          6           0        3.743230    2.093844   -0.393663
     10          6           0        2.258367    2.132824   -0.639057
     11          6           0        5.919765    1.123703    0.331164
     12          6           0        6.689991   -0.019279   -0.348699
     13          8           0        8.108076   -0.014808    0.038413
     14          6           0        6.126362   -1.371258    0.071191
     15          6           0        4.620314   -1.456123   -0.242327
     16          6           0        1.505353   -1.627502    0.178448
     17          6           0        0.072642   -1.681174   -0.406373
     18          6           0       -0.864450    1.998234   -0.525491
     19          6           0       -2.257155    1.375396   -0.844150
     20          6           0       -2.076237   -0.187575   -0.860993
     21          6           0       -3.364619   -0.936767   -0.412105
     22          6           0       -4.546579   -0.550919   -1.348060
     23          6           0       -5.934174   -1.127898   -0.982371
     24          6           0       -6.460350   -0.767812    0.425057
     25          6           0       -6.629916    0.741723    0.728710
     26          6           0       -7.634794    1.421659   -0.223268
     27          6           0       -7.056818    0.943746    2.197671
     28          6           0       -3.190950   -2.469306   -0.368938
     29          1           0       -1.539403   -1.190958    1.813666
     30          1           0       -0.065283   -0.246200    2.033541
     31          1           0       -1.594586    0.572469    1.712863
     32          1           0        0.251545    0.587461   -1.680360
     33          1           0        1.426972    1.129152    1.076953
     34          1           0        2.468863   -0.434349   -1.329589
     35          1           0        4.685517   -0.320473    2.395730
     36          1           0        2.996481    0.189863    2.401036
     37          1           0        3.413259   -1.527197    2.209413
     38          1           0        4.292616    3.009470   -0.617963
     39          1           0        1.847515    3.078923   -0.257959
     40          1           0        2.065475    2.144633   -1.726433
     41          1           0        6.291654    2.096317   -0.019454
     42          1           0        6.140862    1.066588    1.407346
     43          1           0        6.620446    0.088350   -1.442616
     44          1           0        8.544844    0.817497   -0.233812
     45          1           0        6.666299   -2.170192   -0.451048
     46          1           0        6.316974   -1.509332    1.143319
     47          1           0        4.240086   -2.429836    0.089226
     48          1           0        4.483030   -1.417372   -1.333552
     49          1           0        2.042620   -2.530761   -0.137935
     50          1           0        1.437661   -1.680142    1.271568
     51          1           0        0.125321   -1.780483   -1.501856
     52          1           0       -0.421331   -2.584649   -0.031772
     53          1           0       -0.848997    2.442212    0.479187
     54          1           0       -0.598742    2.794481   -1.229906
     55          1           0       -2.996327    1.662248   -0.084629
     56          1           0       -2.640704    1.734660   -1.805397
     57          1           0       -1.871183   -0.498847   -1.900225
     58          1           0       -3.611077   -0.591057    0.603799
     59          1           0       -4.625860    0.541888   -1.393397
     60          1           0       -4.294484   -0.880116   -2.369189
     61          1           0       -6.653647   -0.782759   -1.738388
     62          1           0       -5.917948   -2.222406   -1.074285
     63          1           0       -7.437442   -1.257197    0.566289
     64          1           0       -5.792612   -1.201520    1.184177
     65          1           0       -5.652596    1.232018    0.596659
     66          1           0       -7.755691    2.482305    0.030758
     67          1           0       -7.313433    1.365576   -1.269530
     68          1           0       -8.621887    0.944331   -0.147607
     69          1           0       -8.033150    0.475940    2.385688
     70          1           0       -6.331495    0.495380    2.888495
     71          1           0       -7.143232    2.009817    2.442576
     72          1           0       -2.451197   -2.776595    0.374836
     73          1           0       -2.866530   -2.852932   -1.346011
     74          1           0       -4.131747   -2.967396   -0.110848
 ---------------------------------------------------------------------
 Rotational constants (GHZ):           0.5329960           0.0601993           0.0579324
 Leave Link  202 at Mon Jul 28 19:18:12 2025, MaxMem=  1073741824 cpu:               0.1 elap:               0.0
 (Enter /app/gaussian/g16/l601.exe)
 Copying SCF densities to generalized density rwf, IOpCl= 0 IROHF=0.

 **********************************************************************

            Population analysis using the SCF Density.

 **********************************************************************

 Orbital symmetries:
       Occupied  (A) (A) (A) (A) (A) (A) (A) (A) (A) (A) (A) (A)
                 (A) (A) (A) (A) (A) (A) (A) (A) (A) (A) (A) (A)
                 (A) (A) (A) (A) (A) (A) (A) (A) (A) (A) (A) (A)
                 (A) (A) (A) (A) (A) (A) (A) (A) (A) (A) (A) (A)
                 (A) (A) (A) (A) (A) (A) (A) (A) (A) (A) (A) (A)
                 (A) (A) (A) (A) (A) (A) (A) (A) (A) (A) (A) (A)
                 (A) (A) (A) (A) (A) (A) (A) (A) (A) (A) (A) (A)
                 (A) (A) (A) (A) (A) (A) (A) (A) (A) (A) (A) (A)
                 (A) (A) (A) (A) (A) (A) (A) (A) (A) (A) (A) (A)
       Virtual   (A) (A) (A) (A) (A) (A) (A) (A) (A) (A) (A) (A)
                 (A) (A) (A) (A) (A) (A) (A) (A) (A) (A) (A) (A)
                 (A) (A) (A) (A) (A) (A) (A) (A) (A) (A) (A) (A)
                 (A) (A) (A) (A) (A) (A) (A) (A) (A) (A) (A) (A)
                 (A) (A) (A) (A) (A) (A) (A) (A) (A) (A) (A) (A)
                 (A) (A) (A) (A) (A) (A) (A) (A) (A) (A) (A) (A)
                 (A) (A) (A) (A) (A) (A) (A) (A) (A) (A) (A) (A)
                 (A) (A) (A) (A) (A) (A) (A) (A) (A) (A) (A) (A)
                 (A) (A) (A) (A) (A) (A) (A) (A) (A) (A) (A) (A)
                 (A) (A) (A) (A) (A) (A) (A) (A) (A) (A) (A) (A)
                 (A) (A) (A) (A) (A) (A) (A) (A) (A) (A) (A) (A)
                 (A) (A) (A) (A) (A) (A) (A) (A) (A) (A) (A) (A)
                 (A) (A) (A) (A) (A) (A) (A) (A) (A) (A) (A) (A)
                 (A) (A) (A) (A) (A) (A) (A) (A) (A) (A) (A) (A)
                 (A) (A) (A) (A) (A) (A) (A) (A) (A) (A) (A) (A)
                 (A) (A) (A) (A) (A) (A) (A) (A) (A) (A) (A) (A)
                 (A) (A) (A) (A) (A) (A) (A) (A) (A) (A) (A) (A)
                 (A) (A) (A) (A) (A) (A) (A) (A) (A) (A) (A) (A)
                 (A) (A) (A) (A) (A) (A) (A) (A) (A) (A) (A) (A)
                 (A) (A) (A) (A) (A) (A) (A) (A) (A) (A) (A) (A)
                 (A) (A) (A) (A) (A) (A) (A) (A) (A) (A) (A) (A)
                 (A) (A) (A) (A) (A) (A) (A) (A) (A) (A) (A) (A)
                 (A) (A) (A) (A) (A) (A) (A) (A) (A) (A) (A) (A)
                 (A) (A) (A) (A) (A) (A) (A) (A) (A) (A) (A) (A)
                 (A) (A) (A) (A) (A) (A) (A) (A) (A) (A) (A) (A)
                 (A) (A) (A) (A) (A) (A) (A) (A) (A) (A) (A) (A)
                 (A) (A) (A) (A) (A) (A) (A) (A) (A) (A) (A) (A)
                 (A) (A) (A) (A) (A) (A) (A) (A) (A) (A) (A) (A)
                 (A) (A) (A) (A) (A) (A) (A) (A) (A) (A) (A)
 The electronic state is 1-A.
 Alpha  occ. eigenvalues --  -19.14949 -10.23888 -10.20362 -10.19133 -10.19127
 Alpha  occ. eigenvalues --  -10.18766 -10.18571 -10.18550 -10.18541 -10.18358
 Alpha  occ. eigenvalues --  -10.18265 -10.18207 -10.18203 -10.18143 -10.17915
 Alpha  occ. eigenvalues --  -10.17780 -10.17625 -10.17615 -10.17587 -10.17547
 Alpha  occ. eigenvalues --  -10.17513 -10.17498 -10.17456 -10.17227 -10.16983
 Alpha  occ. eigenvalues --  -10.16961 -10.16911 -10.16782  -1.01983  -0.87070
 Alpha  occ. eigenvalues --   -0.85204  -0.82115  -0.80841  -0.79339  -0.78853
 Alpha  occ. eigenvalues --   -0.76671  -0.75700  -0.74018  -0.72761  -0.71295
 Alpha  occ. eigenvalues --   -0.68899  -0.68602  -0.68449  -0.67607  -0.67299
 Alpha  occ. eigenvalues --   -0.63937  -0.62308  -0.61043  -0.60717  -0.58192
 Alpha  occ. eigenvalues --   -0.56755  -0.56507  -0.55191  -0.53961  -0.53297
 Alpha  occ. eigenvalues --   -0.51737  -0.49465  -0.48421  -0.47976  -0.47616
 Alpha  occ. eigenvalues --   -0.46887  -0.46860  -0.45726  -0.44965  -0.44733
 Alpha  occ. eigenvalues --   -0.43713  -0.43341  -0.43210  -0.42778  -0.42074
 Alpha  occ. eigenvalues --   -0.41705  -0.41058  -0.40703  -0.40676  -0.40250
 Alpha  occ. eigenvalues --   -0.39788  -0.39045  -0.38708  -0.38565  -0.38309
 Alpha  occ. eigenvalues --   -0.37879  -0.37772  -0.37519  -0.36745  -0.36418
 Alpha  occ. eigenvalues --   -0.36236  -0.35794  -0.35218  -0.34935  -0.34284
 Alpha  occ. eigenvalues --   -0.34055  -0.33729  -0.33652  -0.33107  -0.32487
 Alpha  occ. eigenvalues --   -0.32096  -0.31794  -0.31494  -0.31339  -0.30955
 Alpha  occ. eigenvalues --   -0.30719  -0.30492  -0.30179  -0.29418  -0.28283
 Alpha  occ. eigenvalues --   -0.27693  -0.26952  -0.23722
 Alpha virt. eigenvalues --   -0.00579  -0.00319   0.00210   0.00378   0.00566
 Alpha virt. eigenvalues --    0.01116   0.01312   0.01419   0.01856   0.02495
 Alpha virt. eigenvalues --    0.02750   0.03015   0.03330   0.03548   0.04072
 Alpha virt. eigenvalues --    0.04170   0.04695   0.04833   0.05284   0.05818
 Alpha virt. eigenvalues --    0.06008   0.06092   0.06291   0.06562   0.06940
 Alpha virt. eigenvalues --    0.06960   0.07482   0.07709   0.07916   0.08378
 Alpha virt. eigenvalues --    0.08460   0.08886   0.09019   0.09100   0.09215
 Alpha virt. eigenvalues --    0.09655   0.10219   0.10465   0.10761   0.10898
 Alpha virt. eigenvalues --    0.11155   0.11429   0.11609   0.11860   0.12235
 Alpha virt. eigenvalues --    0.12387   0.12541   0.12879   0.12908   0.13187
 Alpha virt. eigenvalues --    0.13676   0.13957   0.14316   0.14412   0.14706
 Alpha virt. eigenvalues --    0.14905   0.15209   0.15241   0.15620   0.15694
 Alpha virt. eigenvalues --    0.16051   0.16390   0.16652   0.16833   0.17021
 Alpha virt. eigenvalues --    0.17241   0.17397   0.17680   0.18176   0.18364
 Alpha virt. eigenvalues --    0.18509   0.18664   0.18797   0.19079   0.19248
 Alpha virt. eigenvalues --    0.19363   0.19619   0.19919   0.19979   0.20210
 Alpha virt. eigenvalues --    0.20361   0.20488   0.20722   0.21001   0.21159
 Alpha virt. eigenvalues --    0.21307   0.21496   0.21813   0.21902   0.22113
 Alpha virt. eigenvalues --    0.22374   0.22456   0.22596   0.22619   0.22941
 Alpha virt. eigenvalues --    0.23026   0.23375   0.23427   0.23664   0.24090
 Alpha virt. eigenvalues --    0.24184   0.24379   0.24615   0.24689   0.24837
 Alpha virt. eigenvalues --    0.25142   0.25175   0.25462   0.25490   0.25735
 Alpha virt. eigenvalues --    0.26051   0.26303   0.26512   0.26745   0.27095
 Alpha virt. eigenvalues --    0.27170   0.27247   0.27561   0.27886   0.28152
 Alpha virt. eigenvalues --    0.28187   0.28276   0.28783   0.28942   0.29119
 Alpha virt. eigenvalues --    0.29344   0.29582   0.29670   0.29947   0.30424
 Alpha virt. eigenvalues --    0.30707   0.31085   0.31194   0.31568   0.31627
 Alpha virt. eigenvalues --    0.32018   0.32117   0.32146   0.32631   0.32879
 Alpha virt. eigenvalues --    0.33174   0.33494   0.33712   0.33856   0.34061
 Alpha virt. eigenvalues --    0.34353   0.34660   0.34837   0.35114   0.35452
 Alpha virt. eigenvalues --    0.35623   0.35939   0.36116   0.36307   0.36887
 Alpha virt. eigenvalues --    0.37405   0.37758   0.38460   0.38521   0.38813
 Alpha virt. eigenvalues --    0.39018   0.39327   0.39533   0.39825   0.40135
 Alpha virt. eigenvalues --    0.40724   0.41359   0.41616   0.41990   0.42770
 Alpha virt. eigenvalues --    0.43072   0.43234   0.43495   0.44066   0.44403
 Alpha virt. eigenvalues --    0.44757   0.45226   0.46070   0.46663   0.47596
 Alpha virt. eigenvalues --    0.47937   0.49404   0.49635   0.50230   0.51629
 Alpha virt. eigenvalues --    0.52742   0.54216   0.55561   0.57692   0.65573
 Alpha virt. eigenvalues --    0.66385   0.67748   0.68215   0.69044   0.69892
 Alpha virt. eigenvalues --    0.69988   0.70428   0.71085   0.71459   0.71840
 Alpha virt. eigenvalues --    0.72155   0.72308   0.72577   0.72938   0.73669
 Alpha virt. eigenvalues --    0.73703   0.74503   0.74720   0.75618   0.75929
 Alpha virt. eigenvalues --    0.76589   0.76825   0.77092   0.78045   0.78365
 Alpha virt. eigenvalues --    0.78605   0.78730   0.79613   0.79925   0.80522
 Alpha virt. eigenvalues --    0.80928   0.81681   0.82227   0.82403   0.83735
 Alpha virt. eigenvalues --    0.83797   0.83826   0.84540   0.85331   0.85578
 Alpha virt. eigenvalues --    0.86324   0.87360   0.87597   0.87943   0.88152
 Alpha virt. eigenvalues --    0.89034   0.89558   0.90372   0.90769   0.92950
 Alpha virt. eigenvalues --    0.93132   0.93797   0.94286   0.94595   0.95402
 Alpha virt. eigenvalues --    0.96869   0.97519   0.97650   0.98311   0.98881
 Alpha virt. eigenvalues --    0.99620   1.00298   1.01043   1.01246   1.02902
 Alpha virt. eigenvalues --    1.03697   1.04400   1.04779   1.06104   1.06970
 Alpha virt. eigenvalues --    1.07476   1.07920   1.08902   1.09436   1.10145
 Alpha virt. eigenvalues --    1.10602   1.10939   1.11304   1.11873   1.12161
 Alpha virt. eigenvalues --    1.12876   1.13193   1.13723   1.14673   1.15492
 Alpha virt. eigenvalues --    1.16266   1.16561   1.17042   1.17282   1.17811
 Alpha virt. eigenvalues --    1.18801   1.18948   1.20021   1.20341   1.20692
 Alpha virt. eigenvalues --    1.21051   1.21693   1.22288   1.22621   1.23369
 Alpha virt. eigenvalues --    1.23811   1.24335   1.24700   1.25495   1.26165
 Alpha virt. eigenvalues --    1.26400   1.26631   1.27995   1.28331   1.28756
 Alpha virt. eigenvalues --    1.30121   1.30880   1.31013   1.31187   1.32129
 Alpha virt. eigenvalues --    1.33119   1.33517   1.34049   1.34199   1.36309
 Alpha virt. eigenvalues --    1.36967   1.37964   1.38833   1.39301   1.41257
 Alpha virt. eigenvalues --    1.41924   1.42158   1.42538   1.44232   1.44947
 Alpha virt. eigenvalues --    1.47273   1.49576   1.50416   1.50907   1.53991
 Alpha virt. eigenvalues --    1.55102   1.56472   1.57221   1.58556   1.61264
 Alpha virt. eigenvalues --    1.65363   1.66763   1.69887   1.71111   1.72977
 Alpha virt. eigenvalues --    1.77753   1.80271   1.82397   1.83851   1.91523
 Alpha virt. eigenvalues --    1.93910   1.97882   2.04186   2.13577   2.20003
 Alpha virt. eigenvalues --    2.23755   2.24740
          Condensed to atoms (all electrons):
 Mulliken charges:
               1
     1  C   -0.716005
     2  C   -1.114411
     3  C   -0.261410
     4  C    0.339516
     5  C   -0.254805
     6  C   -0.198598
     7  C   -0.632324
     8  C    0.745033
     9  C   -0.737193
    10  C   -0.571059
    11  C   -0.194442
    12  C   -0.333179
    13  O   -0.494206
    14  C   -0.633112
    15  C   -0.043914
    16  C   -0.597019
    17  C   -0.306639
    18  C   -0.843220
    19  C   -0.399213
    20  C    0.703730
    21  C   -0.031669
    22  C    0.022899
    23  C   -0.722063
    24  C   -0.240292
    25  C   -0.018988
    26  C   -0.604086
    27  C   -0.704701
    28  C   -0.667186
    29  H    0.213900
    30  H    0.208376
    31  H    0.219533
    32  H    0.210631
    33  H    0.205188
    34  H    0.205283
    35  H    0.211107
    36  H    0.213713
    37  H    0.207118
    38  H    0.156075
    39  H    0.211234
    40  H    0.220061
    41  H    0.186494
    42  H    0.235177
    43  H    0.194946
    44  H    0.407009
    45  H    0.210178
    46  H    0.222500
    47  H    0.200588
    48  H    0.206727
    49  H    0.197247
    50  H    0.209384
    51  H    0.208518
    52  H    0.191614
    53  H    0.209974
    54  H    0.203188
    55  H    0.209214
    56  H    0.204390
    57  H    0.196994
    58  H    0.212851
    59  H    0.209291
    60  H    0.196141
    61  H    0.198718
    62  H    0.195535
    63  H    0.189825
    64  H    0.195149
    65  H    0.197277
    66  H    0.188550
    67  H    0.191129
    68  H    0.195776
    69  H    0.195900
    70  H    0.186886
    71  H    0.188275
    72  H    0.198561
    73  H    0.201095
    74  H    0.191231
 Sum of Mulliken charges =  -0.00000
 Mulliken charges with hydrogens summed into heavy atoms:
               1
     1  C   -0.074195
     2  C   -1.114411
     3  C   -0.050780
     4  C    0.544705
     5  C   -0.049522
     6  C   -0.198598
     7  C   -0.000387
     8  C    0.745033
     9  C   -0.581117
    10  C   -0.139763
    11  C    0.227229
    12  C   -0.138233
    13  O   -0.087197
    14  C   -0.200434
    15  C    0.363401
    16  C   -0.190388
    17  C    0.093493
    18  C   -0.430057
    19  C    0.014391
    20  C    0.900724
    21  C    0.181183
    22  C    0.428331
    23  C   -0.327810
    24  C    0.144682
    25  C    0.178289
    26  C   -0.028630
    27  C   -0.133641
    28  C   -0.076299
 Electronic spatial extent (au):  <R**2>=          18834.2135
 Charge=              0.0000 electrons
 Dipole moment (field-independent basis, Debye):
    X=             -1.4903    Y=              1.1463    Z=             -0.8024  Tot=              2.0442
 Quadrupole moment (field-independent basis, Debye-Ang):
   XX=           -202.5189   YY=           -180.3821   ZZ=           -183.1889
   XY=             11.2167   XZ=             -6.2119   YZ=             -1.1049
 Traceless Quadrupole moment (field-independent basis, Debye-Ang):
   XX=            -13.8223   YY=              8.3146   ZZ=              5.5077
   XY=             11.2167   XZ=             -6.2119   YZ=             -1.1049
 Octapole moment (field-independent basis, Debye-Ang**2):
  XXX=           -132.7025  YYY=              4.0510  ZZZ=             -4.8516  XYY=             30.2077
  XXY=            105.0597  XXZ=            -59.0678  XZZ=             15.1899  YZZ=             -1.2392
  YYZ=             -1.5917  XYZ=             -5.2124
 Hexadecapole moment (field-independent basis, Debye-Ang**3):
 XXXX=         -24815.1765 YYYY=          -2169.1784 ZZZZ=          -1247.8680 XXXY=           1051.0663
 XXXZ=           -461.1250 YYYX=              2.2318 YYYZ=             -8.6302 ZZZX=             23.7955
 ZZZY=             -1.9569 XXYY=          -4090.4045 XXZZ=          -4091.3565 YYZZ=           -571.3244
 XXYZ=            -34.2452 YYXZ=            -19.7192 ZZXY=             -5.3705
 N-N= 2.810379528482D+03 E-N=-8.242517782521D+03  KE= 1.124917138865D+03
 No NMR shielding tensors so no spin-rotation constants.
 Leave Link  601 at Mon Jul 28 19:18:12 2025, MaxMem=  1073741824 cpu:               1.8 elap:               0.3
 (Enter /app/gaussian/g16/l9999.exe)
 Unable to Open any file for archive entry.
 1\1\GINC-NODE43\FOpt\RB3LYP\6-31+G\C27H46O1\KOHEI.NUMATA\28-Jul-2025\0
 \\#p opt B3LYP/6-31+G\\cholesterol Opt B3LYP/6-31+G\\0,1\C,0.482880543
 6,-0.2662237067,1.4321553839\C,0.2817530255,0.4005310928,0.0479574096\
 C,-0.4396726559,-0.5413264148,-0.9681476275\C,-1.8588073426,-0.9763591
 99,-0.564815474\C,-2.7453499991,0.2819886321,-0.3295874134\C,-4.203774
 2729,-0.0847908639,0.1376155557\C,-4.2370595463,-0.5078218951,1.635974
 5636\C,-4.7581546217,-1.2390408165,-0.7184972533\C,-3.9845893076,-1.99
 83575125,-1.5156899072\C,-2.4916839951,-1.8643941812,-1.6565531594\C,-
 6.2547105253,-1.4956470018,-0.6225586959\C,-7.0760322789,-0.2189375647
 ,-0.8619637467\O,-8.5053005314,-0.4444242967,-0.6027569073\C,-6.630367
 1463,0.8914347809,0.0815877467\C,-5.1224211562,1.1668590899,-0.0730575
 032\C,-2.0489124461,1.3185902095,0.5902130762\C,-0.6001910125,1.666680
 1839,0.1687924355\C,0.6054444314,-1.6271523656,-1.2897999198\C,1.96166
 35261,-0.8602015472,-1.2503619705\C,1.6687825182,0.5760413663,-0.67824
 28791\C,2.8790954945,1.1567840398,0.1095370347\C,4.1248248486,1.223622
 5854,-0.8208450237\C,5.4500398592,1.6830512349,-0.1690902026\C,5.94032
 9457,0.832977095,1.024378376\C,6.2057716139,-0.6657273836,0.7361422669
 \C,7.2970540068,-0.8723343616,-0.3337957875\C,6.5830494142,-1.39912565
 51,2.0402495496\C,2.5930801253,2.5421353536,0.7257331527\H,0.946833804
 8,0.4367922675,2.1339042411\H,-0.4629501899,-0.5923524927,1.8744566194
 \H,1.1339865596,-1.1447557719,1.3680319869\H,-0.5595416128,0.062629304
 2,-1.8872053285\H,-1.8093226896,-1.5631621841,0.3650564838\H,-2.858067
 2243,0.7557229376,-1.321485058\H,-5.2177552502,-0.9035967803,1.9162687
 017\H,-3.4979351002,-1.2903624858,1.8391618333\H,-4.0295451575,0.34354
 06812,2.2935496509\H,-4.4560560348,-2.782068273,-2.1106896488\H,-2.029
 9735752,-2.8622513972,-1.6409680313\H,-2.2521651495,-1.4444070254,-2.6
 495163988\H,-6.5397813407,-2.2739537498,-1.3437979353\H,-6.5251411648,
 -1.8710110753,0.3755806727\H,-6.9521950971,0.1091587503,-1.9060377916\
 H,-8.8685419282,-1.1271956961,-1.2023255438\H,-7.2040047083,1.80197528
 58,-0.1291625399\H,-6.8761182978,0.5937047624,1.1091192595\H,-4.828305
 9876,1.9539811547,0.6316064692\H,-4.9361949561,1.5607333107,-1.0836535
 783\H,-2.6362481199,2.2455774675,0.6092650648\H,-2.0319779852,0.947095
 3239,1.6217010767\H,-0.613081925,2.1797271644,-0.8055474638\H,-0.18948
 13511,2.3782012361,0.8938144942\H,0.5793155434,-2.4257572783,-0.535957
 1603\H,0.4285055055,-2.1007243782,-2.2620305238\H,2.6865630276,-1.3811
 934463,-0.6111278964\H,2.410967277,-0.7993179502,-2.2476553177\H,1.486
 2847533,1.2547543543,-1.5297020757\H,3.1063433022,0.4574881289,0.92908
 77057\H,4.2849966738,0.2391638933,-1.2766436952\H,3.8933811861,1.90945
 64758,-1.6519241076\H,6.2242842606,1.6943760154,-0.9493094361\H,5.3584
 404514,2.7254099317,0.165209041\H,6.8724378504,1.2780190882,1.40812686
 48\H,5.2110824551,0.9045905606,1.8449327585\H,5.2731091739,-1.11517473
 52,0.3604847851\H,7.4835728339,-1.9410341918,-0.4987451179\H,7.0174656
 4,-0.4316788015,-1.2975056916\H,8.2428041427,-0.4124922455,-0.01438911
 39\H,7.513966832,-0.9921065577,2.4587522222\H,5.7982762112,-1.29046749
 48,2.7996487053\H,6.735989961,-2.4710242304,1.8624933022\H,1.801896046
 1,2.4996866528,1.4787842463\H,2.2837392891,3.257368542,-0.0487598659\H
 ,3.4833990386,2.9481040542,1.2179980543\\Version=ES64L-G16RevC.01\Stat
 e=1-A\HF=-1131.5572555\RMSD=4.459e-09\RMSF=3.633e-06\Dipole=0.6304382,
 -0.2633513,-0.4242733\Quadrupole=-11.756918,5.8344289,5.922489,4.95702
 75,6.2815408,2.035238\PG=C01 [X(C27H46O1)]\\@
 The archive entry for this job was punched.


 SUCCESS IS COUNTED SWEETEST
 BY THOSE WHO NE'ER SUCCEED.
 TO COMPREHEND NECTAR
 REQUIRES SOREST NEED.
           EMILY DICKINSON
 Job cpu time:       0 days  5 hours 45 minutes 22.6 seconds.
 Elapsed time:       0 days  0 hours 43 minutes 20.8 seconds.
 File lengths (MBytes):  RWF=    188 Int=      0 D2E=      0 Chk=     32 Scr=      8
 Normal termination of Gaussian 16 at Mon Jul 28 19:18:13 2025.
