74
cholesterol optimized geometry
C -0.994372 -0.308105 1.459480
C -0.734240 -0.405268 -0.064957
C 0.100574 0.799430 -0.605151
C 1.509402 0.942227 -0.004580
C 2.313548 -0.370732 -0.237426
C 3.753782 -0.318127 0.397212
C 3.707256 -0.506138 1.942408
C 4.422057 1.032805 0.079488
C 3.743230 2.093844 -0.393663
C 2.258367 2.132824 -0.639057
C 5.919765 1.123703 0.331164
C 6.689991 -0.019279 -0.348699
O 8.108076 -0.014808 0.038413
C 6.126362 -1.371258 0.071191
C 4.620314 -1.456123 -0.242327
C 1.505353 -1.627502 0.178448
C 0.072642 -1.681174 -0.406373
C -0.864450 1.998234 -0.525491
C -2.257155 1.375396 -0.844150
C -2.076237 -0.187575 -0.860993
C -3.364619 -0.936767 -0.412105
C -4.546579 -0.550919 -1.348060
C -5.934174 -1.127898 -0.982371
C -6.460350 -0.767812 0.425057
C -6.629916 0.741723 0.728710
C -7.634794 1.421659 -0.223268
C -7.056818 0.943746 2.197671
C -3.190950 -2.469306 -0.368938
H -1.539403 -1.190958 1.813666
H -0.065283 -0.246200 2.033541
H -1.594586 0.572469 1.712863
H 0.251545 0.587461 -1.680360
H 1.426972 1.129152 1.076953
H 2.468863 -0.434349 -1.329589
H 4.685517 -0.320473 2.395730
H 2.996481 0.189863 2.401036
H 3.413259 -1.527197 2.209413
H 4.292616 3.009470 -0.617963
H 1.847515 3.078923 -0.257959
H 2.065475 2.144633 -1.726433
H 6.291654 2.096317 -0.019454
H 6.140862 1.066588 1.407346
H 6.620446 0.088350 -1.442616
H 8.544844 0.817497 -0.233812
H 6.666299 -2.170192 -0.451048
H 6.316974 -1.509332 1.143319
H 4.240086 -2.429836 0.089226
H 4.483030 -1.417372 -1.333552
H 2.042620 -2.530761 -0.137935
H 1.437661 -1.680142 1.271568
H 0.125321 -1.780483 -1.501856
H -0.421331 -2.584649 -0.031772
H -0.848997 2.442212 0.479187
H -0.598742 2.794481 -1.229906
H -2.996327 1.662248 -0.084629
H -2.640704 1.734660 -1.805397
H -1.871183 -0.498847 -1.900225
H -3.611077 -0.591057 0.603799
H -4.625860 0.541888 -1.393397
H -4.294484 -0.880116 -2.369189
H -6.653647 -0.782759 -1.738388
H -5.917948 -2.222406 -1.074285
H -7.437442 -1.257197 0.566289
H -5.792612 -1.201520 1.184177
H -5.652596 1.232018 0.596659
H -7.755691 2.482305 0.030758
H -7.313433 1.365576 -1.269530
H -8.621887 0.944331 -0.147607
H -8.033150 0.475940 2.385688
H -6.331495 0.495380 2.888495
H -7.143232 2.009817 2.442576
H -2.451197 -2.776595 0.374836
H -2.866530 -2.852932 -1.346011
H -4.131747 -2.967396 -0.110848