76
cholestanol optimized geometry
C -0.757891 0.583799 2.080898
C -0.772335 0.316699 0.554107
C 0.168525 1.300708 -0.220725
C 1.654216 1.210358 0.170738
C 2.150826 -0.252314 -0.074504
C 3.682403 -0.435495 0.244959
C 3.964027 -0.252772 1.759253
C 4.465798 0.608566 -0.629198
C 4.018575 2.056387 -0.356421
C 2.511365 2.227892 -0.614963
C 5.997380 0.432698 -0.536632
C 6.414793 -0.980563 -0.959776
O 7.853271 -1.212520 -0.751938
C 5.685778 -2.048453 -0.149370
C 4.154639 -1.855098 -0.197043
C 1.227185 -1.286874 0.620255
C -0.270647 -1.115933 0.262845
C -0.556396 2.662178 -0.130891
C -2.070992 2.284610 -0.166054
C -2.143744 0.720011 -0.103261
C -3.530880 0.184479 0.376425
C -3.680507 -1.341640 0.139513
C -5.129938 -1.884843 0.125078
C -6.003000 -1.361400 -1.048701
C -7.060642 -0.289730 -0.676683
C -7.628356 0.376654 -1.946345
C -8.202435 -0.884592 0.173331
C -3.965533 0.563865 1.810703
H -1.304561 -0.202663 2.611729
H -1.222016 1.541295 2.335739
H 0.259641 0.596388 2.482609
H 0.116007 0.985055 -1.279006
H 1.753468 1.447085 1.240603
H 2.053900 -0.425343 -1.162915
H 3.588857 0.701841 2.139878
H 5.034551 -0.293462 1.980890
H 3.485620 -1.051742 2.337221
H 4.185131 0.386216 -1.675356
H 4.586398 2.740965 -1.003271
H 4.260382 2.337809 0.678746
H 2.200006 3.249876 -0.361728
H 2.316191 2.097572 -1.692303
H 6.356801 0.619959 0.483629
H 6.483591 1.176378 -1.187153
H 6.191085 -1.118342 -2.030604
H 8.387967 -0.560882 -1.249186
H 6.052748 -2.005681 0.883672
H 5.952853 -3.039771 -0.535138
H 3.686264 -2.619983 0.433893
H 3.799237 -2.034699 -1.224455
H 1.346267 -1.222232 1.709430
H 1.533309 -2.301504 0.337650
H -0.856704 -1.859541 0.817910
H -0.413747 -1.332799 -0.807157
H -0.299134 3.177727 0.804394
H -0.280133 3.333369 -0.951610
H -2.560257 2.650376 -1.077323
H -2.604256 2.738943 0.676772
H -2.063427 0.360901 -1.143747
H -4.241464 0.683665 -0.304937
H -3.114969 -1.878889 0.914110
H -3.210987 -1.600551 -0.821460
H -5.068945 -2.980705 0.071050
H -5.617804 -1.664621 1.084251
H -6.534601 -2.202252 -1.520413
H -5.342523 -0.949261 -1.826792
H -6.562904 0.490348 -0.079334
H -6.835346 0.859148 -2.531537
H -8.114960 -0.369162 -2.590222
H -8.375660 1.139607 -1.694531
H -8.918829 -0.107279 0.467591
H -7.829676 -1.358202 1.089107
H -8.749310 -1.646276 -0.399809
H -5.043477 0.408379 1.934749
H -3.764616 1.615574 2.039956
H -3.459409 -0.047672 2.564676