74
epicholesterol optimized geometry
C -0.782346 -0.122948 1.730788
C -0.592231 0.072475 0.205086
C 0.406390 1.226954 -0.125236
C 1.838923 1.022561 0.395551
C 2.412751 -0.315150 -0.158823
C 3.863297 -0.617300 0.373864
C 3.840354 -1.111876 1.850936
C 4.729227 0.652815 0.291329
C 4.214930 1.881540 0.105272
C 2.748557 2.196036 -0.025592
C 6.227541 0.463474 0.453110
C 6.804003 -0.634117 -0.457889
O 6.715922 -0.266680 -1.881577
C 6.015370 -1.934977 -0.310151
C 4.508378 -1.716318 -0.536889
C 1.427339 -1.496213 0.040647
C -0.013757 -1.206335 -0.446171
C -0.352066 2.509023 0.270839
C -1.834888 2.187068 -0.085930
C -1.906639 0.654069 -0.438215
C -3.281104 0.030370 -0.064102
C -4.445228 0.759318 -0.816403
C -5.640824 1.172562 0.075205
C -6.464030 0.022658 0.697100
C -7.262334 -0.861974 -0.293798
C -8.352590 -0.066113 -1.040517
C -7.886524 -2.062169 0.448460
C -3.351913 -1.490060 -0.328170
H -1.229025 0.760143 2.200325
H -1.445107 -0.972829 1.931173
H 0.164615 -0.320542 2.241437
H 0.485123 1.235093 -1.228564
H 1.823500 0.981799 1.495415
H 2.520927 -0.165554 -1.247797
H 4.851755 -1.182311 2.264160
H 3.387509 -2.106505 1.928722
H 3.275189 -0.423302 2.488530
H 4.897219 2.730868 0.038798
H 2.507633 3.088304 0.570330
H 2.524515 2.470126 -1.071703
H 6.745373 1.416805 0.273824
H 6.468660 0.179716 1.490009
H 7.863033 -0.798759 -0.211273
H 6.994546 0.659124 -2.028176
H 6.396054 -2.664419 -1.035138
H 6.206499 -2.346764 0.690682
H 4.359816 -1.428689 -1.584603
H 3.982843 -2.666556 -0.380316
H 1.388189 -1.773026 1.101145
H 1.801626 -2.379417 -0.492287
H -0.012479 -1.073682 -1.539321
H -0.636092 -2.083483 -0.235722
H 0.016638 3.392915 -0.261702
H -0.236772 2.711466 1.344354
H -2.176474 2.799274 -0.927714
H -2.501239 2.413853 0.756555
H -1.789759 0.546053 -1.530770
H -3.431360 0.194451 1.015048
H -4.796220 0.119879 -1.639511
H -4.064784 1.670324 -1.293783
H -6.308878 1.820541 -0.509739
H -5.256022 1.800706 0.893011
H -7.178745 0.455156 1.415697
H -5.796644 -0.621925 1.287935
H -6.563050 -1.261594 -1.044618
H -7.931045 0.749960 -1.638111
H -9.067205 0.370647 -0.328769
H -8.914215 -0.719096 -1.720426
H -7.118094 -2.665246 0.948593
H -8.594652 -1.717968 1.215006
H -8.432691 -2.715872 -0.243101
H -2.684360 -2.058208 0.326115
H -3.078625 -1.715994 -1.367750
H -4.368607 -1.864260 -0.165168